@Relation toy_rate

@attribute att1 numeric
@attribute att2 numeric
@attribute att3 numeric
@attribute att4 numeric
@attribute att5 numeric
@attribute att6 numeric
@attribute att7 numeric
@attribute att8 numeric
@attribute att9 numeric
@attribute att10 numeric
@attribute att11 numeric
@attribute att12 numeric
@attribute att13 numeric
@attribute att14 numeric
@attribute att15 numeric
@attribute att16 numeric
@attribute att17 numeric
@attribute att18 numeric
@attribute att19 numeric
@attribute att20 numeric
@attribute att21 numeric
@attribute att22 numeric
@attribute att23 numeric
@attribute att24 numeric
@attribute att25 numeric
@attribute att26 numeric
@attribute att27 numeric
@attribute att28 numeric
@attribute att29 numeric
@attribute att30 numeric
@attribute att31 numeric
@attribute att32 numeric
@attribute att33 numeric
@attribute att34 numeric
@attribute att35 numeric
@attribute att36 numeric
@attribute att37 numeric
@attribute att38 numeric
@attribute att39 numeric
@attribute att40 numeric
@attribute att41 numeric
@attribute att42 numeric
@attribute att43 numeric
@attribute att44 numeric
@attribute att45 numeric
@attribute att46 numeric
@attribute att47 numeric
@attribute att48 numeric
@attribute att49 numeric
@attribute att50 numeric
@attribute att51 numeric
@attribute att52 numeric
@attribute att53 numeric
@attribute att54 numeric
@attribute att55 numeric
@attribute att56 numeric
@attribute att57 numeric
@attribute att58 numeric
@attribute att59 numeric
@attribute att60 numeric
@attribute att61 numeric
@attribute att62 numeric
@attribute att63 numeric
@attribute att64 numeric
@attribute att65 numeric
@attribute att66 numeric
@attribute att67 numeric
@attribute att68 numeric
@attribute att69 numeric
@attribute att70 numeric
@attribute att71 numeric
@attribute att72 numeric
@attribute att73 numeric
@attribute att74 numeric
@attribute att75 numeric
@attribute att76 numeric
@attribute att77 numeric
@attribute att78 numeric
@attribute att79 numeric
@attribute att80 numeric
@attribute att81 numeric
@attribute att82 numeric
@attribute att83 numeric
@attribute att84 numeric
@attribute att85 numeric
@attribute att86 numeric
@attribute att87 numeric
@attribute att88 numeric
@attribute att89 numeric
@attribute att90 numeric
@attribute att91 numeric
@attribute att92 numeric
@attribute att93 numeric
@attribute att94 numeric
@attribute att95 numeric
@attribute att96 numeric
@attribute att97 numeric
@attribute att98 numeric
@attribute att99 numeric
@attribute att100 numeric
@attribute att101 numeric
@attribute att102 numeric
@attribute att103 numeric
@attribute att104 numeric
@attribute att105 numeric
@attribute att106 numeric
@attribute att107 numeric
@attribute att108 numeric
@attribute att109 numeric
@attribute att110 numeric
@attribute att111 numeric
@attribute att112 numeric
@attribute att113 numeric
@attribute att114 numeric
@attribute att115 numeric
@attribute att116 numeric
@attribute att117 numeric
@attribute att118 numeric
@attribute att119 numeric
@attribute att120 numeric
@attribute att121 numeric
@attribute att122 numeric
@attribute att123 numeric
@attribute att124 numeric
@attribute att125 numeric
@attribute att126 numeric
@attribute att127 numeric
@attribute att128 numeric
@attribute att129 numeric
@attribute att130 numeric
@attribute att131 numeric
@attribute att132 numeric
@attribute att133 numeric
@attribute att134 numeric
@attribute att135 numeric
@attribute att136 numeric
@attribute att137 numeric
@attribute att138 numeric
@attribute att139 numeric
@attribute att140 numeric
@attribute att141 numeric
@attribute att142 numeric
@attribute att143 numeric
@attribute att144 numeric
@attribute att145 numeric
@attribute att146 numeric
@attribute att147 numeric
@attribute att148 numeric
@attribute att149 numeric
@attribute att150 numeric
@attribute att151 numeric
@attribute att152 numeric
@attribute att153 numeric
@attribute att154 numeric
@attribute att155 numeric
@attribute att156 numeric
@attribute att157 numeric
@attribute att158 numeric
@attribute att159 numeric
@attribute att160 numeric
@attribute att161 numeric
@attribute att162 numeric
@attribute att163 numeric
@attribute att164 numeric
@attribute att165 numeric
@attribute att166 numeric
@attribute att167 numeric
@attribute att168 numeric
@attribute att169 numeric
@attribute att170 numeric
@attribute att171 numeric
@attribute att172 numeric
@attribute att173 numeric
@attribute att174 numeric
@attribute att175 numeric
@attribute att176 numeric
@attribute att177 numeric
@attribute att178 numeric
@attribute att179 numeric
@attribute att180 numeric
@attribute att181 numeric
@attribute att182 numeric
@attribute att183 numeric
@attribute att184 numeric
@attribute att185 numeric
@attribute att186 numeric
@attribute att187 numeric
@attribute att188 numeric
@attribute att189 numeric
@attribute att190 numeric
@attribute att191 numeric
@attribute att192 numeric
@attribute att193 numeric
@attribute att194 numeric
@attribute att195 numeric
@attribute att196 numeric
@attribute att197 numeric
@attribute att198 numeric
@attribute att199 numeric
@attribute att200 numeric
@attribute target {1}

@data
0.003047,-0.010400,0.007505,0.009406,-0.019510,-0.013022,0.001279,-0.003162,-0.000167,-0.008529,0.008797,0.007782,0.000667,0.011283,0.004692,-0.008567,0.003726,-0.009532,0.008867,-0.000381,-0.001682,-0.006577,0.012546,-0.001109,-0.003695,-0.002737,0.006360,0.005013,0.005891,0.006579,0.024316,-0.000390,-0.000502,-0.002368,0.013314,0.020102,0.009645,0.004712,0.007606,0.025551,0.030185,0.032461,0.025282,0.039859,0.045060,0.053255,0.067841,0.070367,0.084931,0.089893,0.104302,0.121084,0.114769,0.141957,0.157534,0.174222,0.197528,0.236190,0.234820,0.276647,0.274830,0.314157,0.346067,0.378240,0.408340,0.438817,0.457739,0.487502,0.532022,0.553114,0.573966,0.607034,0.640596,0.685793,0.712710,0.747917,0.765555,0.799151,0.830317,0.846067,0.877284,0.887971,0.911025,0.928983,0.936964,0.967807,0.970079,0.984499,0.996510,1.001198,1.006113,0.998570,0.987970,0.975288,0.934852,0.905376,0.868109,0.827230,0.792535,0.727419,0.678357,0.639617,0.567386,0.523409,0.453350,0.409528,0.353764,0.314748,0.284888,0.221189,0.208467,0.175805,0.140320,0.107989,0.102493,0.078684,0.071131,0.056192,0.061235,0.033882,0.018667,0.024663,0.020175,0.027625,0.019234,0.011953,0.021050,-0.007008,-0.002711,-0.006498,-0.001834,-0.012237,0.007479,-0.001397,-0.014108,-0.009722,0.003447,0.008604,0.020126,0.029250,0.004223,-0.009841,-0.021282,0.002703,-0.008111,-0.004141,-0.006113,-0.001402,0.010664,0.001573,-0.001585,-0.010355,-0.016746,-0.004863,-0.000538,0.017679,0.001303,0.009827,-0.004993,-0.011849,-0.009651,-0.007252,0.021285,-0.008214,0.008385,-0.009029,0.009316,0.003850,-0.001566,-0.000408,-0.006548,0.004461,-0.004550,-0.012256,-0.012779,0.001726,0.015791,0.001600,-0.001186,0.002858,0.013060,0.002194,-0.004109,0.011063,0.004288,0.015358,0.001832,-0.012245,-0.013682,0.016509,0.017237,-0.001795,-0.003832,0.014614,-0.011070,-0.008947,0.006433,-0.003946,-0.000051,-0.001634,1
0.003376,0.014075,0.000906,0.006439,-0.020502,-0.000487,-0.008432,-0.012188,-0.008781,-0.003341,0.009159,-0.013264,0.000307,-0.004841,-0.003276,0.010029,0.005383,0.013377,-0.001540,-0.006953,-0.002229,0.002438,0.001784,-0.010818,0.000941,0.002331,0.025241,0.018857,-0.008414,-0.002717,-0.014428,-0.005637,0.003507,0.012512,-0.006708,-0.005796,-0.020526,-0.000430,-0.009120,-0.003413,-0.006428,0.001955,-0.014009,-0.010296,0.026629,-0.006395,-0.003136,0.027792,0.040339,0.001747,0.012305,0.022321,0.039551,0.016241,0.028044,0.043253,0.045461,0.043696,0.053232,0.048762,0.068959,0.078454,0.094220,0.098183,0.121398,0.140911,0.147633,0.166118,0.180907,0.199421,0.212525,0.244498,0.263209,0.309191,0.329258,0.343782,0.359756,0.384710,0.437081,0.457911,0.490856,0.499901,0.558291,0.585449,0.601742,0.639954,0.678829,0.707755,0.734678,0.766075,0.793056,0.824340,0.863362,0.847238,0.893057,0.917823,0.937626,0.947405,0.947759,0.980460,1.003885,0.978228,1.006646,0.996633,0.996588,0.974250,0.959495,0.945084,0.899272,0.865371,0.808919,0.746459,0.701611,0.629169,0.573413,0.503397,0.450118,0.388246,0.354207,0.285411,0.261997,0.213492,0.192596,0.158037,0.142349,0.108776,0.066478,0.065330,0.040807,0.036257,0.047520,0.031500,0.012321,0.004577,0.011444,-0.003839,-0.000527,0.007675,0.014879,0.008496,-0.021183,0.004276,0.001591,0.004749,0.016586,-0.020340,-0.005711,0.006044,-0.015725,0.014820,0.003724,0.008492,-0.005692,0.008149,0.010692,0.002333,0.002347,0.002705,-0.008632,-0.001475,-0.001525,0.003834,0.009998,-0.010585,-0.001250,0.014815,-0.007436,-0.008222,0.002023,0.008444,0.000114,0.013290,0.008568,0.008418,0.005541,0.023277,-0.002052,-0.020035,0.016043,-0.004577,0.001079,0.013096,-0.016023,-0.012516,-0.016013,-0.007941,0.004396,0.005242,0.002763,-0.014128,-0.023101,0.000544,-0.004718,0.004594,0.007020,0.001382,0.007601,0.002292,0.005301,-0.007047,1
-0.001796,0.001968,0.008205,-0.003937,0.005212,-0.002658,-0.001175,0.008295,-0.019931,-0.012965,-0.014822,-0.023336,-0.006783,0.007494,-0.002849,0.001978,0.010892,0.013277,-0.000691,0.013536,0.000922,-0.008373,-0.005942,-0.014803,-0.008878,-0.003576,0.008042,0.017215,-0.013811,0.003942,-0.010387,0.004771,-0.001279,-0.018267,0.009338,-0.005979,-0.005247,-0.010579,-0.006390,0.004474,-0.001644,0.003602,0.004017,0.013707,-0.002801,-0.013986,0.011646,-0.002109,0.012635,0.005664,0.000931,0.006225,0.022839,0.024803,0.005563,0.007459,0.017783,-0.000070,0.013312,0.011580,0.017132,0.008148,0.003451,0.001902,0.015211,0.026069,0.032567,0.060342,0.058186,0.044406,0.065212,0.066240,0.076972,0.092164,0.108047,0.111112,0.138949,0.131903,0.159642,0.203093,0.198190,0.230457,0.238532,0.266238,0.283977,0.308223,0.328736,0.368596,0.384619,0.429617,0.464516,0.488780,0.514314,0.554232,0.579407,0.624757,0.629909,0.677403,0.692896,0.729194,0.788206,0.812809,0.824610,0.843177,0.853204,0.900123,0.950357,0.948819,0.954770,0.978365,0.968800,0.989395,0.998525,0.998996,1.005256,0.987464,0.966595,0.918973,0.891960,0.848949,0.766727,0.707044,0.666143,0.586695,0.538901,0.458423,0.418210,0.349480,0.299585,0.266229,0.205487,0.163177,0.136412,0.118300,0.075221,0.078178,0.050732,0.054866,0.009241,0.017241,0.001928,0.005653,0.012671,0.005596,0.002764,0.002167,0.004672,-0.008253,0.008327,0.007483,0.004426,0.005949,0.003217,0.020515,-0.000765,-0.003003,-0.007492,-0.010296,-0.012428,-0.008878,-0.000701,0.003347,0.000514,-0.007654,0.009003,0.007395,-0.001596,-0.006529,0.005484,0.001880,-0.014481,-0.000680,0.002620,-0.008997,0.001898,-0.014548,0.013362,0.012480,-0.002525,0.003635,-0.024099,-0.011563,-0.002938,-0.010721,0.007144,0.019973,-0.011766,-0.008375,0.002354,0.016111,-0.012224,0.002490,0.018213,-0.016518,-0.012811,-0.004236,-0.005206,0.008126,0.002417,-0.017750,1
0.005154,-0.005775,0.012744,-0.006276,-0.006366,0.005411,0.007629,0.004481,-0.016856,0.005380,-0.010343,0.002353,-0.014237,0.004463,-0.008066,-0.012826,0.007138,0.002416,-0.006140,0.014512,-0.004406,0.000321,0.002689,-0.006196,0.004712,-0.005334,-0.004116,0.013627,-0.010405,-0.024126,0.016112,0.025496,-0.004049,-0.019363,-0.003098,-0.002854,-0.001888,-0.011119,0.005814,0.005269,-0.014913,0.007031,0.020577,0.001784,-0.003292,-0.001317,0.006283,-0.017142,0.001851,-0.003646,0.018801,-0.001339,0.017179,-0.010419,0.006636,0.004134,-0.007537,0.003185,0.013847,-0.001143,-0.014379,0.002896,-0.005320,0.001030,0.004521,-0.010678,-0.008557,0.013848,0.005464,-0.013024,0.022709,0.020165,0.013270,0.010640,0.036047,0.035599,0.060939,0.046972,0.053017,0.054616,0.072439,0.079416,0.095552,0.088731,0.101606,0.114352,0.141460,0.164224,0.161665,0.180382,0.207542,0.223126,0.257706,0.249680,0.289334,0.316531,0.329203,0.372045,0.402938,0.441509,0.486973,0.506462,0.532253,0.576036,0.621339,0.635312,0.669947,0.718140,0.743117,0.783612,0.807582,0.843843,0.853865,0.889530,0.910799,0.921611,0.936416,0.974434,0.976689,0.979572,0.995308,1.010841,0.975717,0.971018,0.951866,0.939399,0.881225,0.831266,0.750849,0.685182,0.632459,0.559568,0.496623,0.424060,0.367389,0.309645,0.264690,0.219543,0.155610,0.115296,0.119053,0.097049,0.055458,0.031366,0.038512,0.037118,0.038319,0.019849,0.006746,-0.001574,0.005220,0.000504,-0.007788,0.022064,0.018889,0.012034,-0.008777,0.008823,0.006567,0.004531,0.012561,0.006392,0.007423,0.006382,0.003416,-0.017832,0.000839,-0.005561,-0.012798,0.016819,0.017290,0.013592,0.002552,0.013506,0.000121,0.002028,-0.010935,0.003970,0.000604,-0.013027,-0.000512,-0.000797,0.017976,0.008942,0.000114,0.002488,0.000442,-0.002029,-0.010824,-0.001511,-0.007461,-0.012503,0.005112,0.003913,-0.017867,-0.001227,0.009957,0.010592,0.010258,0.000389,1
-0.008450,-0.010837,0.003446,0.003793,0.012873,0.011000,-0.001322,-0.012442,-0.003191,0.002172,-0.002021,-0.005779,0.002529,-0.005040,-0.006281,0.003115,-0.004020,0.002441,0.002732,-0.011394,-0.004812,0.014378,-0.011621,-0.021166,-0.018618,0.000291,0.000309,-0.001176,0.012142,-0.026728,0.003960,0.015615,-0.011277,-0.003797,-0.007528,-0.008942,-0.003261,0.014277,0.018377,-0.003356,0.019055,0.000362,0.017545,-0.000923,0.001323,0.003671,0.031809,0.008539,-0.007040,0.009731,-0.003566,-0.004832,0.009168,0.000414,0.002914,0.000300,0.003565,0.004497,-0.019063,0.007046,-0.009352,-0.013846,0.000124,0.001708,-0.005874,0.009605,-0.011847,-0.002158,-0.003535,0.002328,0.006154,-0.006036,0.012088,0.006420,-0.012017,-0.011380,0.009606,0.009294,0.012531,0.015672,0.020962,0.031351,0.014396,0.017939,0.023454,0.042643,0.058274,0.048353,0.035334,0.051912,0.070211,0.083618,0.096903,0.114374,0.125150,0.154382,0.154149,0.170757,0.204129,0.205464,0.247732,0.269411,0.292982,0.337894,0.344776,0.401944,0.410689,0.432914,0.480120,0.503225,0.541677,0.588802,0.626226,0.650238,0.701809,0.738394,0.775186,0.798948,0.838650,0.835805,0.878981,0.898708,0.931200,0.944092,0.964897,0.998896,0.988500,1.000941,0.997485,0.997417,0.979675,0.953267,0.917091,0.867820,0.791748,0.725632,0.635554,0.572157,0.509272,0.438143,0.365554,0.311754,0.253500,0.212920,0.162794,0.121747,0.100039,0.044138,0.058756,0.003956,0.012075,0.025428,0.019459,-0.001475,-0.000217,0.018328,-0.001795,0.024404,0.001241,0.004871,0.016657,0.001607,-0.009846,-0.000993,-0.000296,-0.013613,-0.002539,-0.007411,0.009249,0.000349,-0.002826,-0.001061,0.002232,0.006168,-0.009997,-0.010416,0.011047,-0.004123,-0.014168,0.004438,0.004634,-0.015307,0.002295,0.007356,0.003744,0.006320,-0.014043,0.003310,-0.003026,-0.004828,0.008706,0.014793,0.017944,0.013148,-0.001097,0.003527,0.007668,0.001212,0.001308,0.008238,1
-0.000593,-0.007293,-0.004145,0.006339,0.000030,0.003402,0.006701,-0.003748,0.007562,0.003788,-0.012348,0.014423,-0.005007,-0.016551,-0.010450,-0.010210,0.000522,-0.002739,-0.003368,0.006197,0.003399,0.003160,0.004098,0.006161,-0.021080,-0.003644,-0.021802,0.000361,-0.000046,0.010455,0.011876,0.002028,-0.005003,0.004852,-0.005279,-0.000014,0.009862,-0.005577,0.008057,0.006775,-0.009547,0.009740,0.006987,0.001021,-0.007621,-0.008589,-0.005373,0.005431,-0.009550,0.004383,-0.012408,-0.002028,0.001112,0.024471,-0.013749,0.014751,0.001537,0.004160,0.001243,0.004522,-0.001444,0.014656,-0.004421,0.011501,-0.006223,-0.000330,-0.010383,0.004964,0.014960,-0.000149,-0.001204,-0.010212,-0.001154,-0.014542,-0.007446,0.004307,0.015656,0.031067,-0.002286,0.018652,0.007588,0.004643,0.011664,0.009346,0.011456,0.008166,0.000475,0.001579,0.026508,0.020620,0.021345,0.031878,0.044863,0.044541,0.042778,0.069055,0.080972,0.079529,0.094823,0.109193,0.121026,0.130165,0.145728,0.162153,0.164749,0.203102,0.204552,0.233850,0.280194,0.302588,0.337720,0.350364,0.373288,0.415521,0.453310,0.488529,0.535419,0.557484,0.602057,0.626242,0.678081,0.710600,0.739274,0.779487,0.813597,0.844502,0.894508,0.902891,0.925690,0.928285,0.958058,0.978485,0.984555,1.011558,0.998346,1.005389,0.969443,0.930379,0.876933,0.814666,0.760379,0.643278,0.567423,0.503421,0.433284,0.369162,0.302399,0.236435,0.200701,0.158659,0.115299,0.094830,0.065551,0.039864,0.039296,0.023649,0.015446,0.025098,-0.017673,-0.009755,-0.009065,-0.001886,-0.001479,-0.014434,-0.009476,-0.008392,0.024696,0.018085,-0.004081,-0.003616,-0.011482,-0.019076,-0.001166,-0.009977,-0.000848,-0.016002,-0.007620,0.001486,0.003662,0.004175,-0.013205,0.008547,-0.008002,0.006329,-0.000106,-0.013764,-0.003162,0.003654,0.006130,-0.001410,0.015318,0.010075,-0.002567,0.007501,0.019338,0.019605,-0.012280,-0.009265,0.014849,-0.010583,1
-0.013225,-0.004862,0.004202,-0.001024,-0.006506,-0.006742,-0.007123,-0.008795,0.022816,0.002975,0.008868,-0.004891,-0.001860,-0.007136,-0.026517,-0.013780,-0.018106,-0.022498,-0.011954,0.013250,-0.000444,0.012906,0.004110,0.007826,-0.009009,0.005240,0.007287,-0.005766,0.005595,0.005662,-0.005496,-0.011228,-0.011841,0.000865,0.003270,-0.007925,0.000266,0.005705,0.006182,0.015519,0.012770,-0.010013,0.016836,-0.005309,0.010449,0.000681,-0.004121,-0.018076,-0.001714,-0.015592,0.009675,0.015171,-0.007966,0.003024,-0.007249,-0.006278,0.007753,-0.000375,0.017410,-0.004806,0.010014,0.001000,0.007990,-0.004432,-0.000446,-0.001093,-0.008283,0.006717,0.006621,0.006083,0.015551,0.014718,-0.003472,0.004072,-0.005816,0.000749,-0.005365,0.016975,0.004583,-0.001027,0.013341,-0.019999,-0.018070,0.010465,0.003633,0.006155,-0.008873,0.005037,0.026346,0.015782,0.010684,0.006295,0.008730,-0.006295,0.020275,0.029288,0.008700,0.022019,0.021856,0.029269,0.045722,0.031464,0.066515,0.077010,0.077187,0.066342,0.093953,0.130426,0.105998,0.147569,0.158173,0.198674,0.206312,0.241354,0.269054,0.309674,0.318994,0.356236,0.370732,0.432128,0.448642,0.487857,0.531431,0.554929,0.612174,0.658992,0.691433,0.711181,0.763386,0.808182,0.816290,0.856389,0.905325,0.925651,0.950066,0.983813,0.985160,0.998050,1.025127,0.997809,0.981279,0.964740,0.919380,0.849886,0.773631,0.727928,0.624640,0.529733,0.464166,0.376717,0.304877,0.250679,0.178445,0.149888,0.128750,0.085048,0.053946,0.035477,0.023779,0.016220,0.008570,0.017113,-0.012326,0.011702,-0.001942,0.004861,-0.010642,0.013639,0.012650,0.009700,-0.015093,0.008319,0.004062,-0.016046,-0.000240,0.003647,0.005561,0.001773,0.002912,0.014736,0.012260,-0.028671,-0.003174,-0.001647,-0.017521,0.000942,0.012488,-0.010866,0.003364,-0.009158,-0.006719,0.014774,-0.005426,0.004622,-0.018712,0.018623,0.006027,-0.001825,0.005755,-0.014098,1
0.011825,-0.003240,-0.002041,-0.004917,-0.005807,0.006947,0.002559,0.006517,-0.000088,0.005132,-0.004188,0.022297,-0.015679,0.012609,0.013679,-0.008522,0.022293,0.009955,0.009711,0.000280,-0.002172,-0.002094,0.003905,0.014012,0.001813,-0.009114,0.008244,0.009212,0.006547,0.007455,-0.002709,-0.009290,-0.008682,-0.016355,0.002370,-0.000834,-0.004400,-0.029556,-0.012473,0.011208,-0.006646,0.003606,-0.013907,0.014387,-0.001440,0.002901,0.023258,0.015165,-0.003065,-0.005932,-0.003255,0.005100,-0.001051,-0.003951,0.014673,-0.001140,0.022998,0.000910,0.017857,0.003577,0.009635,-0.007240,-0.008530,0.004607,0.009898,0.000418,-0.012845,-0.013578,-0.014241,-0.017639,0.001141,0.011308,-0.000062,-0.022515,-0.001797,-0.001491,0.021129,-0.014362,-0.003648,0.017377,0.004892,0.006116,0.001738,0.004026,0.008666,-0.007007,0.010109,-0.012111,0.005253,0.004179,-0.003265,0.003278,-0.001994,-0.005620,0.002590,-0.003693,0.012020,-0.001005,0.019620,0.003036,0.011936,0.014555,0.037773,0.032131,0.031681,0.044500,0.024988,0.053102,0.082007,0.072982,0.083199,0.100204,0.117331,0.103609,0.123627,0.161172,0.172376,0.215010,0.223064,0.233194,0.268190,0.283692,0.341106,0.375676,0.409161,0.461609,0.501586,0.527796,0.548881,0.617626,0.658360,0.696975,0.744057,0.761781,0.831055,0.836778,0.886652,0.891987,0.925721,0.972398,0.972511,0.996761,0.999073,0.998908,1.005718,0.961511,0.898934,0.845298,0.782706,0.696389,0.587667,0.506766,0.422245,0.344733,0.263276,0.208905,0.155949,0.128611,0.095490,0.060201,0.038521,0.029894,0.010490,0.000440,-0.001993,-0.001856,-0.008981,0.003147,0.008152,-0.015404,0.000499,-0.002071,0.003479,-0.000098,-0.014521,-0.012617,0.000297,0.010289,-0.022141,0.003458,0.011896,-0.001530,0.005502,-0.007031,-0.001194,-0.016209,-0.023443,0.009428,-0.009850,-0.004555,-0.013864,-0.014100,-0.001738,-0.007296,0.003780,0.004525,0.003208,0.002386,0.015778,-0.010676,1
