@Relation toy_accel

@attribute att1 numeric
@attribute att2 numeric
@attribute att3 numeric
@attribute att4 numeric
@attribute att5 numeric
@attribute att6 numeric
@attribute att7 numeric
@attribute att8 numeric
@attribute att9 numeric
@attribute att10 numeric
@attribute att11 numeric
@attribute att12 numeric
@attribute att13 numeric
@attribute att14 numeric
@attribute att15 numeric
@attribute att16 numeric
@attribute att17 numeric
@attribute att18 numeric
@attribute att19 numeric
@attribute att20 numeric
@attribute att21 numeric
@attribute att22 numeric
@attribute att23 numeric
@attribute att24 numeric
@attribute att25 numeric
@attribute att26 numeric
@attribute att27 numeric
@attribute att28 numeric
@attribute att29 numeric
@attribute att30 numeric
@attribute att31 numeric
@attribute att32 numeric
@attribute att33 numeric
@attribute att34 numeric
@attribute att35 numeric
@attribute att36 numeric
@attribute att37 numeric
@attribute att38 numeric
@attribute att39 numeric
@attribute att40 numeric
@attribute att41 numeric
@attribute att42 numeric
@attribute att43 numeric
@attribute att44 numeric
@attribute att45 numeric
@attribute att46 numeric
@attribute att47 numeric
@attribute att48 numeric
@attribute att49 numeric
@attribute att50 numeric
@attribute att51 numeric
@attribute att52 numeric
@attribute att53 numeric
@attribute att54 numeric
@attribute att55 numeric
@attribute att56 numeric
@attribute att57 numeric
@attribute att58 numeric
@attribute att59 numeric
@attribute att60 numeric
@attribute att61 numeric
@attribute att62 numeric
@attribute att63 numeric
@attribute att64 numeric
@attribute att65 numeric
@attribute att66 numeric
@attribute att67 numeric
@attribute att68 numeric
@attribute att69 numeric
@attribute att70 numeric
@attribute att71 numeric
@attribute att72 numeric
@attribute att73 numeric
@attribute att74 numeric
@attribute att75 numeric
@attribute att76 numeric
@attribute att77 numeric
@attribute att78 numeric
@attribute att79 numeric
@attribute att80 numeric
@attribute att81 numeric
@attribute att82 numeric
@attribute att83 numeric
@attribute att84 numeric
@attribute att85 numeric
@attribute att86 numeric
@attribute att87 numeric
@attribute att88 numeric
@attribute att89 numeric
@attribute att90 numeric
@attribute att91 numeric
@attribute att92 numeric
@attribute att93 numeric
@attribute att94 numeric
@attribute att95 numeric
@attribute att96 numeric
@attribute att97 numeric
@attribute att98 numeric
@attribute att99 numeric
@attribute att100 numeric
@attribute att101 numeric
@attribute att102 numeric
@attribute att103 numeric
@attribute att104 numeric
@attribute att105 numeric
@attribute att106 numeric
@attribute att107 numeric
@attribute att108 numeric
@attribute att109 numeric
@attribute att110 numeric
@attribute att111 numeric
@attribute att112 numeric
@attribute att113 numeric
@attribute att114 numeric
@attribute att115 numeric
@attribute att116 numeric
@attribute att117 numeric
@attribute att118 numeric
@attribute att119 numeric
@attribute att120 numeric
@attribute att121 numeric
@attribute att122 numeric
@attribute att123 numeric
@attribute att124 numeric
@attribute att125 numeric
@attribute att126 numeric
@attribute att127 numeric
@attribute att128 numeric
@attribute att129 numeric
@attribute att130 numeric
@attribute att131 numeric
@attribute att132 numeric
@attribute att133 numeric
@attribute att134 numeric
@attribute att135 numeric
@attribute att136 numeric
@attribute att137 numeric
@attribute att138 numeric
@attribute att139 numeric
@attribute att140 numeric
@attribute att141 numeric
@attribute att142 numeric
@attribute att143 numeric
@attribute att144 numeric
@attribute att145 numeric
@attribute att146 numeric
@attribute att147 numeric
@attribute att148 numeric
@attribute att149 numeric
@attribute att150 numeric
@attribute att151 numeric
@attribute att152 numeric
@attribute att153 numeric
@attribute att154 numeric
@attribute att155 numeric
@attribute att156 numeric
@attribute att157 numeric
@attribute att158 numeric
@attribute att159 numeric
@attribute att160 numeric
@attribute att161 numeric
@attribute att162 numeric
@attribute att163 numeric
@attribute att164 numeric
@attribute att165 numeric
@attribute att166 numeric
@attribute att167 numeric
@attribute att168 numeric
@attribute att169 numeric
@attribute att170 numeric
@attribute att171 numeric
@attribute att172 numeric
@attribute att173 numeric
@attribute att174 numeric
@attribute att175 numeric
@attribute att176 numeric
@attribute att177 numeric
@attribute att178 numeric
@attribute att179 numeric
@attribute att180 numeric
@attribute att181 numeric
@attribute att182 numeric
@attribute att183 numeric
@attribute att184 numeric
@attribute att185 numeric
@attribute att186 numeric
@attribute att187 numeric
@attribute att188 numeric
@attribute att189 numeric
@attribute att190 numeric
@attribute att191 numeric
@attribute att192 numeric
@attribute att193 numeric
@attribute att194 numeric
@attribute att195 numeric
@attribute att196 numeric
@attribute att197 numeric
@attribute att198 numeric
@attribute att199 numeric
@attribute att200 numeric
@attribute target {1}

@data
0.003047,-0.010400,0.007505,0.009406,-0.019510,-0.013022,0.001278,-0.003162,-0.000168,-0.008530,0.008794,0.007778,0.000660,0.011272,0.004675,-0.008593,0.003688,-0.009589,0.008785,-0.000499,-0.001849,-0.006809,0.012225,-0.001545,-0.004283,-0.003521,0.005323,0.003654,0.004127,0.004308,0.021416,-0.004064,-0.005122,-0.008138,0.006160,0.011290,-0.001139,-0.008402,-0.008245,0.006506,0.007433,0.005432,-0.006655,0.002322,0.001167,0.002187,0.008714,0.002236,0.006789,0.000676,0.002891,0.006313,-0.014572,-0.003197,-0.004704,-0.006389,-0.002751,0.014949,-0.008658,0.009683,-0.016829,-0.003349,0.001628,0.005862,0.007112,0.007933,-0.003487,-0.004624,0.008580,-0.001913,-0.012757,-0.011333,-0.009195,0.004972,0.001424,0.006905,-0.004273,0.001585,0.006256,-0.003093,0.004568,-0.006619,-0.003631,-0.003817,-0.011958,0.004871,-0.004691,0.000133,0.004829,0.004520,0.006788,-0.000670,-0.003519,0.000755,-0.013639,-0.008009,-0.000863,0.012672,0.043679,0.057448,0.102781,0.176214,0.235382,0.341682,0.437689,0.569306,0.688678,0.812484,0.920498,0.958636,1.004251,0.927767,0.712515,0.454807,0.259467,0.115590,0.050372,0.016532,0.020772,-0.001199,-0.009975,0.001842,0.002208,0.013593,0.008351,0.003569,0.014633,-0.011888,-0.006398,-0.009266,-0.003898,-0.013767,0.006352,-0.002222,-0.014708,-0.010156,0.003135,0.008381,0.019967,0.029139,0.004144,-0.009895,-0.021320,0.002677,-0.008129,-0.004154,-0.006121,-0.001408,0.010660,0.001570,-0.001586,-0.010357,-0.016747,-0.004863,-0.000538,0.017679,0.001303,0.009827,-0.004993,-0.011849,-0.009651,-0.007252,0.021285,-0.008214,0.008385,-0.009029,0.009316,0.003850,-0.001566,-0.000408,-0.006548,0.004461,-0.004550,-0.012256,-0.012779,0.001726,0.015791,0.001600,-0.001186,0.002858,0.013060,0.002194,-0.004109,0.011063,0.004288,0.015358,0.001832,-0.012245,-0.013682,0.016509,0.017237,-0.001795,-0.003832,0.014614,-0.011070,-0.008947,0.006433,-0.003946,-0.000051,-0.001634,1
0.003376,0.014075,0.000906,0.006439,-0.020502,-0.000487,-0.008432,-0.012188,-0.008782,-0.003341,0.009159,-0.013264,0.000306,-0.004842,-0.003277,0.010028,0.005381,0.013374,-0.001545,-0.006959,-0.002239,0.002425,0.001766,-0.010844,0.000905,0.002282,0.025175,0.018768,-0.008532,-0.002874,-0.014634,-0.005907,0.003156,0.012059,-0.007291,-0.006541,-0.021473,-0.001627,-0.010624,-0.005294,-0.008769,-0.000943,-0.017577,-0.014670,0.021292,-0.012874,-0.010968,0.018369,0.029051,-0.011716,-0.003682,0.003416,0.017287,-0.009869,-0.002453,0.007773,0.004348,-0.003762,-0.001338,-0.013749,-0.002382,-0.002664,0.002322,-0.005553,0.004715,0.010127,0.001554,0.003518,0.000532,0.000001,-0.007216,0.003165,-0.000973,0.020932,0.015734,0.003858,-0.007631,-0.011124,0.011911,0.002628,0.004801,-0.017446,0.009275,0.004545,-0.011103,-0.004711,0.002647,0.000548,-0.002867,-0.000911,-0.002248,0.002103,0.015901,-0.023311,0.002147,0.010120,0.017869,0.021930,0.024959,0.071210,0.121792,0.139528,0.229597,0.300262,0.400908,0.500904,0.624028,0.754316,0.849812,0.943425,0.991576,1.004306,0.955359,0.764502,0.541708,0.322081,0.173156,0.072991,0.042390,-0.000169,0.011488,-0.000882,0.011968,0.007565,0.018218,0.007310,-0.015720,-0.000669,-0.011720,-0.005183,0.015112,0.006375,-0.006989,-0.010137,0.000328,-0.012166,-0.006711,0.003120,0.011553,0.006088,-0.022913,0.003044,0.000720,0.004139,0.016162,-0.020632,-0.005911,0.005909,-0.015816,0.014759,0.003684,0.008466,-0.005709,0.008138,0.010685,0.002329,0.002344,0.002703,-0.008633,-0.001475,-0.001525,0.003834,0.009998,-0.010585,-0.001250,0.014815,-0.007436,-0.008223,0.002023,0.008444,0.000114,0.013290,0.008568,0.008418,0.005541,0.023277,-0.002052,-0.020035,0.016043,-0.004577,0.001079,0.013096,-0.016023,-0.012516,-0.016013,-0.007941,0.004396,0.005242,0.002763,-0.014128,-0.023101,0.000544,-0.004718,0.004594,0.007020,0.001382,0.007601,0.002292,0.005301,-0.007047,1
-0.001796,0.001968,0.008205,-0.003937,0.005212,-0.002658,-0.001175,0.008295,-0.019931,-0.012965,-0.014822,-0.023336,-0.006783,0.007494,-0.002849,0.001978,0.010892,0.013277,-0.000691,0.013536,0.000921,-0.008374,-0.005944,-0.014805,-0.008881,-0.003580,0.008036,0.017208,-0.013822,0.003928,-0.010405,0.004747,-0.001311,-0.018309,0.009283,-0.006050,-0.005339,-0.010698,-0.006543,0.004279,-0.001892,0.003287,0.003619,0.013207,-0.003428,-0.014769,0.010672,-0.003315,0.011146,0.003834,-0.001311,0.003488,0.019510,0.020770,0.000694,0.001602,0.010762,-0.008457,0.003331,-0.000259,0.003139,-0.008334,-0.015896,-0.020730,-0.011174,-0.004587,-0.002932,0.019372,0.011060,-0.009621,0.003477,-0.004071,-0.002844,0.001853,0.006192,-0.003393,0.010639,-0.011419,0.000063,0.025977,0.002231,0.014333,0.000916,0.005810,-0.000562,-0.001691,-0.007765,0.004366,-0.008383,0.006926,0.011388,0.004697,-0.000928,0.008065,0.003155,0.020085,-0.000410,0.025635,0.025632,0.054431,0.116143,0.155781,0.196706,0.259473,0.328590,0.447802,0.580164,0.665617,0.757189,0.858160,0.911020,0.973421,0.999867,0.968078,0.844246,0.644694,0.444320,0.259553,0.154013,0.087055,0.021327,0.003382,0.017734,-0.000497,0.014455,-0.004314,0.014578,0.001321,0.002584,0.015647,-0.003618,-0.009411,-0.004486,0.004523,-0.015658,0.006375,-0.005388,0.011478,-0.023943,-0.007866,-0.016865,-0.008262,0.002477,-0.001792,-0.002534,-0.001592,0.002034,-0.010085,0.007068,0.006627,0.003850,0.005565,0.002964,0.020351,-0.000871,-0.003071,-0.007535,-0.010323,-0.012445,-0.008888,-0.000707,0.003343,0.000511,-0.007655,0.009002,0.007394,-0.001596,-0.006529,0.005484,0.001880,-0.014481,-0.000680,0.002620,-0.008997,0.001898,-0.014548,0.013362,0.012479,-0.002525,0.003635,-0.024099,-0.011563,-0.002938,-0.010721,0.007144,0.019973,-0.011766,-0.008375,0.002354,0.016111,-0.012224,0.002490,0.018213,-0.016518,-0.012811,-0.004236,-0.005206,0.008126,0.002417,-0.017750,1
0.005154,-0.005775,0.012744,-0.006276,-0.006366,0.005411,0.007629,0.004481,-0.016856,0.005380,-0.010343,0.002353,-0.014237,0.004463,-0.008066,-0.012826,0.007138,0.002416,-0.006140,0.014512,-0.004407,0.000321,0.002689,-0.006197,0.004711,-0.005335,-0.004116,0.013626,-0.010406,-0.024128,0.016109,0.025493,-0.004053,-0.019368,-0.003105,-0.002862,-0.001899,-0.011134,0.005796,0.005245,-0.014944,0.006992,0.020527,0.001720,-0.003373,-0.001420,0.006153,-0.017307,0.001644,-0.003905,0.018478,-0.001742,0.016679,-0.011037,0.005873,0.003194,-0.008690,0.001774,0.012125,-0.003238,-0.016920,-0.000176,-0.009024,-0.003423,-0.000816,-0.017057,-0.016157,0.004821,-0.005227,-0.025647,0.007848,0.002724,-0.007139,-0.013168,0.008358,0.003494,0.023826,0.004202,0.003877,-0.001669,0.008169,0.006253,0.012522,-0.005203,-0.004332,-0.004747,0.007994,0.015148,-0.004279,-0.003679,0.004165,-0.000656,0.012618,-0.017314,0.000273,0.005863,-0.001790,0.023064,0.039580,0.068848,0.111650,0.136653,0.177460,0.246649,0.327968,0.387906,0.476764,0.584676,0.671134,0.770412,0.845656,0.920997,0.953849,0.993119,0.995112,0.915977,0.769047,0.610294,0.419221,0.259963,0.156851,0.095662,0.018570,0.003676,-0.001497,0.017570,0.003872,0.008016,-0.011297,-0.011166,0.004486,0.000585,0.005488,-0.001877,0.002781,0.001581,0.007778,0.008070,-0.016199,-0.022473,0.010017,0.011877,-0.010206,-0.018598,0.000990,0.009308,0.017976,0.005163,-0.003717,-0.008931,0.000115,-0.002993,-0.010151,0.020488,0.017852,0.011360,-0.009209,0.008550,0.006396,0.004425,0.012497,0.006354,0.007400,0.006369,0.003408,-0.017836,0.000836,-0.005562,-0.012798,0.016818,0.017290,0.013592,0.002552,0.013506,0.000121,0.002028,-0.010935,0.003970,0.000604,-0.013027,-0.000512,-0.000797,0.017976,0.008942,0.000114,0.002488,0.000442,-0.002029,-0.010824,-0.001511,-0.007461,-0.012503,0.005112,0.003913,-0.017867,-0.001227,0.009957,0.010592,0.010258,0.000389,1
-0.008450,-0.010837,0.003446,0.003793,0.012873,0.011000,-0.001322,-0.012442,-0.003191,0.002172,-0.002021,-0.005779,0.002529,-0.005040,-0.006281,0.003115,-0.004020,0.002441,0.002732,-0.011394,-0.004812,0.014378,-0.011621,-0.021167,-0.018618,0.000291,0.000309,-0.001176,0.012142,-0.026728,0.003959,0.015614,-0.011278,-0.003798,-0.007529,-0.008943,-0.003263,0.014275,0.018374,-0.003359,0.019051,0.000356,0.017537,-0.000933,0.001311,0.003655,0.031789,0.008513,-0.007073,0.009690,-0.003618,-0.004898,0.009086,0.000311,0.002786,0.000140,0.003366,0.004250,-0.019370,0.006666,-0.009820,-0.014423,-0.000584,0.000840,-0.006935,0.008310,-0.013422,-0.004069,-0.005849,-0.000466,0.002789,-0.010079,0.007243,0.000630,-0.018919,-0.019586,-0.000123,-0.002209,-0.001033,-0.000277,0.002262,0.009488,-0.011089,-0.011679,-0.010859,0.003022,0.012684,-0.003907,-0.024325,-0.015882,-0.006427,-0.002505,0.000785,0.007962,0.008453,0.027836,0.018747,0.028184,0.056896,0.057005,0.102464,0.132712,0.171078,0.237629,0.273250,0.366040,0.416496,0.485092,0.581265,0.653298,0.737575,0.824130,0.891318,0.932458,0.986112,1.008116,1.008635,0.934296,0.818214,0.627613,0.479022,0.325604,0.216743,0.123705,0.070766,0.056642,0.016751,0.012553,0.001271,0.002196,0.000601,0.004674,0.011716,0.016494,0.003102,0.005897,-0.011508,-0.000879,0.009403,0.008660,0.002116,0.008864,0.004908,0.012003,0.002894,-0.003557,0.003358,-0.029306,0.003829,-0.036484,-0.017235,0.004518,0.004775,-0.011624,-0.007121,0.013705,-0.004840,0.022429,-0.000019,0.004080,0.016169,0.001310,-0.010023,-0.001097,-0.000356,-0.013647,-0.002558,-0.007422,0.009244,0.000346,-0.002828,-0.001062,0.002231,0.006168,-0.009997,-0.010416,0.011047,-0.004123,-0.014168,0.004438,0.004634,-0.015307,0.002295,0.007356,0.003744,0.006320,-0.014043,0.003310,-0.003026,-0.004828,0.008706,0.014793,0.017944,0.013148,-0.001097,0.003527,0.007668,0.001212,0.001308,0.008238,1
-0.000593,-0.007293,-0.004145,0.006339,0.000030,0.003402,0.006701,-0.003748,0.007562,0.003788,-0.012348,0.014423,-0.005007,-0.016551,-0.010450,-0.010210,0.000522,-0.002739,-0.003368,0.006197,0.003399,0.003160,0.004098,0.006161,-0.021080,-0.003644,-0.021802,0.000361,-0.000046,0.010455,0.011876,0.002028,-0.005004,0.004852,-0.005279,-0.000014,0.009861,-0.005578,0.008057,0.006774,-0.009548,0.009739,0.006986,0.001019,-0.007623,-0.008592,-0.005377,0.005426,-0.009556,0.004375,-0.012418,-0.002041,0.001096,0.024451,-0.013773,0.014720,0.001498,0.004112,0.001183,0.004447,-0.001537,0.014541,-0.004565,0.011322,-0.006444,-0.000603,-0.010720,0.004550,0.014451,-0.000774,-0.001969,-0.011146,-0.002293,-0.015927,-0.009128,0.002270,0.013193,0.028098,-0.005856,0.014370,0.002467,-0.001462,0.004411,0.000762,0.001338,-0.003704,-0.013375,-0.014481,0.008016,-0.000493,-0.002526,0.005202,0.015463,0.012680,0.008959,0.034091,0.046051,0.046290,0.065411,0.086309,0.107944,0.130712,0.164223,0.203286,0.233396,0.304090,0.342359,0.412264,0.501951,0.569008,0.648373,0.702805,0.762870,0.835344,0.894290,0.939617,0.983953,0.989667,1.003498,0.959233,0.889650,0.762140,0.611233,0.471441,0.340472,0.230713,0.167975,0.090369,0.050032,0.007507,0.005675,0.004464,-0.003601,0.015233,-0.001067,0.013112,0.000701,0.000402,-0.000878,0.000041,0.017189,-0.023196,-0.020015,-0.005432,0.000145,0.006901,0.004731,-0.003842,0.010190,0.010302,0.001841,0.009627,0.002726,-0.005615,0.006978,0.001106,0.000013,0.014730,-0.024509,-0.014177,-0.011871,-0.003633,-0.002546,-0.015073,-0.009852,-0.008608,0.024574,0.018017,-0.004117,-0.003636,-0.011492,-0.019081,-0.001169,-0.009979,-0.000849,-0.016002,-0.007620,0.001486,0.003662,0.004175,-0.013205,0.008547,-0.008002,0.006329,-0.000106,-0.013764,-0.003162,0.003654,0.006130,-0.001410,0.015318,0.010075,-0.002567,0.007501,0.019338,0.019605,-0.012280,-0.009265,0.014849,-0.010583,1
-0.013225,-0.004862,0.004202,-0.001024,-0.006506,-0.006742,-0.007123,-0.008795,0.022816,0.002975,0.008868,-0.004891,-0.001860,-0.007136,-0.026517,-0.013780,-0.018106,-0.022498,-0.011954,0.013250,-0.000444,0.012906,0.004110,0.007826,-0.009009,0.005240,0.007287,-0.005766,0.005595,0.005662,-0.005496,-0.011228,-0.011841,0.000865,0.003270,-0.007925,0.000266,0.005705,0.006182,0.015519,0.012770,-0.010013,0.016836,-0.005310,0.010449,0.000680,-0.004121,-0.018077,-0.001716,-0.015594,0.009673,0.015168,-0.007969,0.003020,-0.007254,-0.006285,0.007745,-0.000385,0.017396,-0.004822,0.009993,0.000974,0.007958,-0.004472,-0.000496,-0.001155,-0.008360,0.006621,0.006503,0.005936,0.015371,0.014495,-0.003747,0.003735,-0.006229,0.000246,-0.005977,0.016233,0.003689,-0.002098,0.012065,-0.021507,-0.019837,0.008418,0.001290,0.003517,-0.011785,0.001903,0.023086,0.012552,0.007720,0.003934,0.007438,-0.005893,0.023185,0.035744,0.019995,0.039729,0.047868,0.065790,0.095284,0.096908,0.150955,0.183775,0.209735,0.228147,0.288369,0.360520,0.374370,0.456154,0.508042,0.589843,0.637565,0.710102,0.771237,0.839716,0.869826,0.919383,0.936473,0.989727,0.986634,0.994388,0.978403,0.899056,0.818578,0.705051,0.568225,0.422525,0.323039,0.236103,0.134929,0.087691,0.068811,0.037575,0.023398,0.028735,0.009758,0.008991,0.028198,-0.001670,-0.007788,0.004352,0.004417,-0.005258,-0.010321,0.023099,0.003269,-0.007323,0.009159,-0.001091,-0.002529,0.005623,-0.012919,0.003526,0.019130,0.004662,-0.003762,-0.005071,-0.004103,-0.002540,-0.003778,0.009163,-0.017332,0.008620,-0.003797,0.003769,-0.011270,0.013286,0.012456,0.009596,-0.015148,0.008291,0.004049,-0.016053,-0.000243,0.003645,0.005561,0.001773,0.002912,0.014736,0.012260,-0.028671,-0.003174,-0.001647,-0.017521,0.000942,0.012488,-0.010866,0.003364,-0.009158,-0.006719,0.014774,-0.005426,0.004622,-0.018712,0.018623,0.006027,-0.001825,0.005755,-0.014098,1
0.011825,-0.003240,-0.002041,-0.004917,-0.005807,0.006947,0.002559,0.006517,-0.000088,0.005132,-0.004188,0.022297,-0.015679,0.012609,0.013679,-0.008522,0.022293,0.009955,0.009711,0.000280,-0.002172,-0.002094,0.003905,0.014012,0.001813,-0.009114,0.008244,0.009212,0.006547,0.007455,-0.002709,-0.009290,-0.008682,-0.016355,0.002369,-0.000834,-0.004400,-0.029556,-0.012473,0.011208,-0.006646,0.003606,-0.013907,0.014387,-0.001440,0.002900,0.023258,0.015164,-0.003066,-0.005932,-0.003255,0.005099,-0.001052,-0.003952,0.014672,-0.001142,0.022996,0.000907,0.017853,0.003573,0.009630,-0.007246,-0.008537,0.004597,0.009886,0.000403,-0.012863,-0.013600,-0.014268,-0.017671,0.001104,0.011265,-0.000112,-0.022570,-0.001856,-0.001551,0.021075,-0.014403,-0.003662,0.017411,0.005001,0.006339,0.002132,0.004662,0.009643,-0.005561,0.012190,-0.009183,0.009296,0.009672,0.004091,0.013002,0.010706,0.010784,0.023559,0.022848,0.045296,0.040339,0.070537,0.065209,0.087221,0.104976,0.145500,0.159460,0.180994,0.218225,0.225539,0.282814,0.343058,0.367304,0.412384,0.465402,0.519145,0.541987,0.597763,0.669416,0.712154,0.782764,0.814223,0.842162,0.888378,0.907579,0.960341,0.981218,0.991453,1.010789,0.994248,0.928390,0.826974,0.750864,0.634205,0.512991,0.406827,0.284812,0.232196,0.135666,0.102618,0.042632,0.026217,0.035373,0.008340,0.014040,0.005131,0.000233,0.014203,-0.002131,-0.017715,-0.007998,0.005524,0.003959,-0.015669,-0.007243,-0.005817,-0.003655,-0.013759,-0.006284,-0.007286,0.007715,0.008091,-0.001458,-0.003920,0.001399,-0.008166,-0.011468,-0.009402,-0.006348,-0.011635,0.001621,0.007297,-0.015871,0.000251,-0.002199,0.003415,-0.000129,-0.014536,-0.012624,0.000294,0.010288,-0.022142,0.003457,0.011896,-0.001530,0.005502,-0.007031,-0.001194,-0.016209,-0.023443,0.009428,-0.009850,-0.004555,-0.013864,-0.014100,-0.001738,-0.007296,0.003780,0.004525,0.003208,0.002386,0.015778,-0.010676,1
-0.000549,0.011327,0.012645,-0.014218,-0.003124,0.013581,0.005081,0.001953,-0.002177,-0.003838,0.002882,-0.002524,-0.000426,0.000786,-0.006781,0.005321,0.029142,-0.017770,0.003240,-0.007602,0.005774,0.000466,0.007619,0.011755,0.001924,0.011321,-0.023443,0.015905,0.003751,0.010778,-0.012199,-0.008308,0.001459,-0.000170,0.002831,0.010845,-0.017652,0.009738,0.000083,-0.002038,-0.014711,0.005030,-0.024141,0.006484,-0.014921,0.000535,-0.001192,0.011695,-0.001787,-0.006941,-0.005066,0.012729,0.005363,-0.003856,-0.002364,-0.015672,0.003885,-0.017598,0.007518,0.001287,0.023870,-0.011000,-0.001024,0.017987,0.011921,-0.006952,0.002255,0.000044,0.002855,-0.006935,-0.000817,-0.015871,0.001506,0.004717,-0.001973,-0.015737,0.010448,0.004402,-0.006252,-0.001474,-0.013263,-0.007991,-0.002464,0.016007,-0.001676,0.012341,0.002039,0.011692,0.009946,0.022652,0.011608,0.004807,0.010903,0.024287,0.022778,0.045903,0.044642,0.081613,0.050230,0.080666,0.079769,0.100042,0.121938,0.114549,0.159287,0.196998,0.196505,0.228803,0.263769,0.281375,0.308886,0.325776,0.390874,0.421248,0.451995,0.504747,0.540353,0.584634,0.640337,0.665415,0.733444,0.752231,0.801246,0.866512,0.894994,0.917426,0.935332,0.962573,0.985901,0.996419,0.999083,0.985679,0.939512,0.855461,0.771017,0.677137,0.539955,0.439324,0.329368,0.248638,0.169775,0.131147,0.079419,0.032094,0.032828,0.006557,0.001644,0.006768,-0.003243,0.009656,-0.007449,-0.006076,-0.006523,-0.005643,0.010996,0.006289,0.017100,0.022677,-0.010307,0.000704,-0.011762,-0.007776,-0.006301,-0.010572,-0.010519,-0.001443,-0.012167,0.008421,-0.009178,0.028096,-0.004514,0.000720,-0.012953,0.017061,0.011195,0.002969,-0.013468,0.002107,-0.011214,0.014624,0.008092,0.000954,-0.024364,-0.009834,0.006878,0.012129,0.011092,-0.015920,0.003016,0.010155,-0.016583,-0.000079,0.002738,-0.003008,-0.018522,-0.003257,-0.003273,-0.001481,-0.005635,-0.004430,1
-0.000397,0.004425,-0.003044,-0.004096,0.000924,-0.019209,0.004770,-0.000006,0.000397,0.009607,-0.019528,-0.019738,0.002738,-0.000071,0.001702,-0.004621,0.006644,0.009326,0.004840,-0.002608,-0.021077,0.007692,0.012217,0.006446,-0.008796,0.006738,0.008605,0.015588,-0.008761,-0.002265,0.007473,0.000574,-0.011173,0.004146,0.005787,0.000880,0.002196,-0.002587,0.014783,-0.009007,-0.005873,0.000110,0.008790,-0.014974,-0.013103,-0.020377,0.000327,-0.011183,-0.003845,0.006614,-0.006415,0.002313,-0.002993,0.006722,0.004752,-0.006918,-0.001684,0.010441,0.003940,-0.013960,0.006571,-0.010823,0.014160,0.010292,0.002973,0.001678,-0.001942,0.006992,-0.003424,0.002741,0.009235,-0.004935,-0.005269,-0.010787,-0.009162,-0.016403,0.009663,0.021036,0.017894,-0.011798,0.012676,0.020774,0.003289,0.010374,-0.008999,0.015706,0.004623,0.019760,0.004964,0.029151,0.037475,0.023293,0.024070,0.018643,0.042787,0.045401,0.042030,0.068990,0.067519,0.069506,0.083696,0.109719,0.115639,0.119812,0.139763,0.135446,0.161949,0.178825,0.189605,0.216904,0.224353,0.258294,0.281243,0.270629,0.337374,0.322293,0.375555,0.422562,0.441351,0.463644,0.502628,0.560440,0.568731,0.637951,0.665475,0.693768,0.739409,0.774014,0.830637,0.865314,0.874362,0.917909,0.939776,0.983110,0.972991,1.012688,0.999651,0.971797,0.929170,0.852216,0.749139,0.649720,0.517643,0.392395,0.305242,0.201517,0.140600,0.085565,0.048427,0.052502,0.017921,0.011139,-0.013704,-0.004773,0.002867,-0.009978,0.009173,-0.011998,-0.002855,-0.005858,0.001644,-0.006405,-0.002709,-0.002361,-0.007344,0.004851,0.002384,-0.000886,-0.004305,0.007965,-0.002358,-0.003067,0.001047,0.016966,-0.013404,0.007699,-0.018932,0.002173,0.015751,0.004887,0.001706,-0.005604,0.000310,-0.002521,-0.007860,-0.002899,0.001984,-0.007672,-0.008063,-0.013602,0.003907,0.005453,0.002317,0.009652,0.000879,0.003920,0.003038,-0.000915,-0.005308,0.022142,1
-0.004520,-0.006659,0.004340,0.002519,-0.014048,0.011227,-0.000942,-0.011109,0.011888,0.006257,-0.012645,0.017772,0.006588,-0.000102,0.015902,0.001593,-0.000281,-0.006603,0.005819,0.004766,0.000147,-0.007900,0.001299,-0.000698,-0.013335,-0.014718,0.005652,-0.026019,0.002054,-0.004781,0.013082,-0.004935,0.006595,-0.003969,0.001137,0.007368,-0.004626,0.009966,-0.009937,0.002946,0.009226,0.006600,0.019164,-0.007634,-0.013791,-0.009943,0.006605,0.004980,0.001023,-0.011229,0.007670,-0.012244,0.011595,0.028583,0.003679,0.005854,-0.004893,-0.018048,-0.005946,-0.010810,-0.014298,0.017467,0.003067,0.004260,-0.002465,-0.000898,0.010734,0.001083,0.007102,0.000304,-0.000600,-0.010592,-0.015537,0.002506,0.006691,-0.005599,0.008192,0.010492,-0.010040,0.004085,0.019180,0.021005,0.007781,0.023242,0.034380,0.034582,0.028672,0.027916,0.029432,0.043694,0.044419,0.052380,0.051194,0.062028,0.058936,0.070181,0.075593,0.063610,0.058581,0.097359,0.090030,0.076161,0.092339,0.113728,0.110142,0.115182,0.142153,0.126037,0.137471,0.157142,0.169202,0.181290,0.197299,0.202939,0.219602,0.226945,0.246155,0.263849,0.283520,0.309133,0.328533,0.346621,0.362989,0.398428,0.425963,0.458514,0.510829,0.517506,0.562655,0.606363,0.635245,0.697276,0.710410,0.757904,0.786743,0.830188,0.873276,0.913555,0.938842,0.974033,0.980470,0.991240,1.026959,0.990113,0.928385,0.843977,0.730144,0.621599,0.477438,0.358851,0.249869,0.172118,0.092970,0.047438,0.033239,0.021279,0.010254,-0.005209,0.007873,-0.007058,-0.005096,-0.009406,0.013020,0.006336,0.006050,0.012472,0.028127,-0.017092,-0.007384,-0.006162,-0.008508,-0.010776,-0.002997,-0.012166,0.003350,0.000517,0.004810,0.005077,0.006030,-0.003734,0.021211,0.002344,-0.018625,-0.010024,-0.017405,0.000173,-0.001218,-0.004684,0.020109,0.005490,0.007261,-0.009311,-0.009991,0.000368,0.001730,-0.018563,-0.001803,0.000141,-0.002151,-0.008134,1
-0.005395,-0.001769,0.000908,0.006048,0.010809,-0.002943,-0.004562,0.004377,0.006108,-0.004342,0.007904,0.009796,0.012917,0.017783,-0.008664,0.000139,0.000113,-0.000981,-0.006493,-0.014856,0.000927,-0.007684,0.000860,-0.007940,-0.010997,0.002343,0.001509,0.005793,0.021859,0.002773,0.004851,-0.010776,-0.012869,0.015828,-0.009235,-0.010439,-0.000391,-0.000902,-0.009025,-0.003050,0.012294,-0.008060,-0.013937,0.009426,0.004924,-0.006204,-0.015819,-0.007441,-0.000537,0.011674,-0.010336,-0.000797,0.006829,-0.023692,0.010521,-0.011552,0.003716,0.003030,0.011633,0.006588,-0.022322,-0.005928,0.003880,0.001250,0.008815,0.012920,0.012256,0.005340,-0.009500,0.006061,0.016601,0.003518,0.022877,0.027936,0.022540,-0.006830,0.013662,0.048021,0.026472,0.014919,0.049960,0.040595,0.054355,0.048895,0.053493,0.055271,0.061290,0.079699,0.069174,0.046128,0.068792,0.078065,0.080935,0.066840,0.084902,0.084634,0.103156,0.071988,0.076469,0.080551,0.080812,0.078967,0.062466,0.088066,0.098546,0.092505,0.119548,0.103288,0.119260,0.112429,0.121853,0.120506,0.135923,0.127761,0.137630,0.142361,0.142471,0.156761,0.183193,0.167153,0.184026,0.203455,0.214513,0.216771,0.207806,0.253378,0.244318,0.301398,0.310614,0.343321,0.351032,0.373701,0.423545,0.454903,0.487214,0.532379,0.600956,0.625442,0.673061,0.717559,0.770814,0.800441,0.826430,0.886756,0.934018,0.947512,0.979222,0.988768,1.014660,0.976632,0.897517,0.779572,0.630427,0.483225,0.329913,0.202956,0.137812,0.079031,0.050540,0.033417,0.023060,-0.007231,-0.002605,0.005075,0.025390,0.014817,0.011197,-0.003877,-0.008832,0.007889,-0.011007,-0.002384,-0.001148,0.015929,-0.003547,-0.024392,0.005044,-0.006990,0.000426,-0.000867,-0.002737,0.007903,-0.015329,-0.005170,0.006840,-0.006141,-0.016088,0.006686,0.011231,-0.000450,-0.019608,0.007060,-0.016599,0.003088,-0.008875,-0.011598,-0.004419,-0.001833,-0.006442,0.005887,1
