@Relation toy_sharp

@attribute att1 numeric
@attribute att2 numeric
@attribute att3 numeric
@attribute att4 numeric
@attribute att5 numeric
@attribute att6 numeric
@attribute att7 numeric
@attribute att8 numeric
@attribute att9 numeric
@attribute att10 numeric
@attribute att11 numeric
@attribute att12 numeric
@attribute att13 numeric
@attribute att14 numeric
@attribute att15 numeric
@attribute att16 numeric
@attribute att17 numeric
@attribute att18 numeric
@attribute att19 numeric
@attribute att20 numeric
@attribute att21 numeric
@attribute att22 numeric
@attribute att23 numeric
@attribute att24 numeric
@attribute att25 numeric
@attribute att26 numeric
@attribute att27 numeric
@attribute att28 numeric
@attribute att29 numeric
@attribute att30 numeric
@attribute att31 numeric
@attribute att32 numeric
@attribute att33 numeric
@attribute att34 numeric
@attribute att35 numeric
@attribute att36 numeric
@attribute att37 numeric
@attribute att38 numeric
@attribute att39 numeric
@attribute att40 numeric
@attribute att41 numeric
@attribute att42 numeric
@attribute att43 numeric
@attribute att44 numeric
@attribute att45 numeric
@attribute att46 numeric
@attribute att47 numeric
@attribute att48 numeric
@attribute att49 numeric
@attribute att50 numeric
@attribute att51 numeric
@attribute att52 numeric
@attribute att53 numeric
@attribute att54 numeric
@attribute att55 numeric
@attribute att56 numeric
@attribute att57 numeric
@attribute att58 numeric
@attribute att59 numeric
@attribute att60 numeric
@attribute att61 numeric
@attribute att62 numeric
@attribute att63 numeric
@attribute att64 numeric
@attribute att65 numeric
@attribute att66 numeric
@attribute att67 numeric
@attribute att68 numeric
@attribute att69 numeric
@attribute att70 numeric
@attribute att71 numeric
@attribute att72 numeric
@attribute att73 numeric
@attribute att74 numeric
@attribute att75 numeric
@attribute att76 numeric
@attribute att77 numeric
@attribute att78 numeric
@attribute att79 numeric
@attribute att80 numeric
@attribute att81 numeric
@attribute att82 numeric
@attribute att83 numeric
@attribute att84 numeric
@attribute att85 numeric
@attribute att86 numeric
@attribute att87 numeric
@attribute att88 numeric
@attribute att89 numeric
@attribute att90 numeric
@attribute att91 numeric
@attribute att92 numeric
@attribute att93 numeric
@attribute att94 numeric
@attribute att95 numeric
@attribute att96 numeric
@attribute att97 numeric
@attribute att98 numeric
@attribute att99 numeric
@attribute att100 numeric
@attribute att101 numeric
@attribute att102 numeric
@attribute att103 numeric
@attribute att104 numeric
@attribute att105 numeric
@attribute att106 numeric
@attribute att107 numeric
@attribute att108 numeric
@attribute att109 numeric
@attribute att110 numeric
@attribute att111 numeric
@attribute att112 numeric
@attribute att113 numeric
@attribute att114 numeric
@attribute att115 numeric
@attribute att116 numeric
@attribute att117 numeric
@attribute att118 numeric
@attribute att119 numeric
@attribute att120 numeric
@attribute att121 numeric
@attribute att122 numeric
@attribute att123 numeric
@attribute att124 numeric
@attribute att125 numeric
@attribute att126 numeric
@attribute att127 numeric
@attribute att128 numeric
@attribute att129 numeric
@attribute att130 numeric
@attribute att131 numeric
@attribute att132 numeric
@attribute att133 numeric
@attribute att134 numeric
@attribute att135 numeric
@attribute att136 numeric
@attribute att137 numeric
@attribute att138 numeric
@attribute att139 numeric
@attribute att140 numeric
@attribute att141 numeric
@attribute att142 numeric
@attribute att143 numeric
@attribute att144 numeric
@attribute att145 numeric
@attribute att146 numeric
@attribute att147 numeric
@attribute att148 numeric
@attribute att149 numeric
@attribute att150 numeric
@attribute att151 numeric
@attribute att152 numeric
@attribute att153 numeric
@attribute att154 numeric
@attribute att155 numeric
@attribute att156 numeric
@attribute att157 numeric
@attribute att158 numeric
@attribute att159 numeric
@attribute att160 numeric
@attribute att161 numeric
@attribute att162 numeric
@attribute att163 numeric
@attribute att164 numeric
@attribute att165 numeric
@attribute att166 numeric
@attribute att167 numeric
@attribute att168 numeric
@attribute att169 numeric
@attribute att170 numeric
@attribute att171 numeric
@attribute att172 numeric
@attribute att173 numeric
@attribute att174 numeric
@attribute att175 numeric
@attribute att176 numeric
@attribute att177 numeric
@attribute att178 numeric
@attribute att179 numeric
@attribute att180 numeric
@attribute att181 numeric
@attribute att182 numeric
@attribute att183 numeric
@attribute att184 numeric
@attribute att185 numeric
@attribute att186 numeric
@attribute att187 numeric
@attribute att188 numeric
@attribute att189 numeric
@attribute att190 numeric
@attribute att191 numeric
@attribute att192 numeric
@attribute att193 numeric
@attribute att194 numeric
@attribute att195 numeric
@attribute att196 numeric
@attribute att197 numeric
@attribute att198 numeric
@attribute att199 numeric
@attribute att200 numeric
@attribute target {1}

@data
0.003047,-0.010400,0.007505,0.009406,-0.019510,-0.013022,0.001278,-0.003162,-0.000168,-0.008530,0.008794,0.007778,0.000660,0.011272,0.004675,-0.008593,0.003688,-0.009589,0.008785,-0.000499,-0.001849,-0.006809,0.012225,-0.001545,-0.004283,-0.003521,0.005323,0.003654,0.004127,0.004308,0.021416,-0.004064,-0.005122,-0.008138,0.006160,0.011290,-0.001139,-0.008402,-0.008245,0.006506,0.007433,0.005432,-0.006654,0.002324,0.001171,0.002194,0.008727,0.002258,0.006826,0.000739,0.002997,0.006486,-0.014292,-0.002753,-0.004011,-0.005325,-0.001142,0.017345,-0.005144,0.014762,-0.009593,0.006814,0.015703,0.025090,0.033028,0.042403,0.041767,0.054031,0.083651,0.092985,0.105747,0.134880,0.169081,0.219820,0.257387,0.308415,0.346944,0.406222,0.467402,0.516855,0.584653,0.633846,0.696261,0.753284,0.798859,0.864658,0.898152,0.939072,0.972028,0.991462,1.004492,0.997153,0.963549,0.902890,0.796136,0.690530,0.576265,0.465506,0.374096,0.269045,0.198029,0.154474,0.092296,0.070164,0.030438,0.022320,0.004955,0.004908,0.013016,-0.014789,0.005640,0.003033,-0.005620,-0.014308,0.000792,-0.005263,0.002340,0.000224,0.016020,-0.002393,-0.010235,0.001793,0.002200,0.013592,0.008351,0.003569,0.014633,-0.011888,-0.006398,-0.009266,-0.003898,-0.013767,0.006352,-0.002222,-0.014708,-0.010156,0.003135,0.008381,0.019967,0.029139,0.004144,-0.009895,-0.021320,0.002677,-0.008129,-0.004154,-0.006121,-0.001408,0.010660,0.001570,-0.001586,-0.010357,-0.016747,-0.004863,-0.000538,0.017679,0.001303,0.009827,-0.004993,-0.011849,-0.009651,-0.007252,0.021285,-0.008214,0.008385,-0.009029,0.009316,0.003850,-0.001566,-0.000408,-0.006548,0.004461,-0.004550,-0.012256,-0.012779,0.001726,0.015791,0.001600,-0.001186,0.002858,0.013060,0.002194,-0.004109,0.011063,0.004288,0.015358,0.001832,-0.012245,-0.013682,0.016509,0.017237,-0.001795,-0.003832,0.014614,-0.011070,-0.008947,0.006433,-0.003946,-0.000051,-0.001634,1
0.003376,0.014075,0.000906,0.006439,-0.020502,-0.000487,-0.008432,-0.012188,-0.008782,-0.003341,0.009159,-0.013264,0.000306,-0.004842,-0.003277,0.010028,0.005381,0.013374,-0.001545,-0.006959,-0.002239,0.002425,0.001766,-0.010844,0.000905,0.002282,0.025175,0.018768,-0.008532,-0.002874,-0.014634,-0.005907,0.003156,0.012059,-0.007291,-0.006541,-0.021473,-0.001627,-0.010624,-0.005294,-0.008769,-0.000943,-0.017577,-0.014670,0.021293,-0.012874,-0.010968,0.018370,0.029052,-0.011714,-0.003679,0.003422,0.017299,-0.009848,-0.002418,0.007832,0.004444,-0.003605,-0.001088,-0.013355,-0.001771,-0.001730,0.003729,-0.003462,0.007779,0.014553,0.007862,0.012388,0.012840,0.016859,0.015577,0.033591,0.039135,0.073149,0.082888,0.089182,0.099488,0.121775,0.174878,0.200169,0.241531,0.263060,0.337956,0.385443,0.425507,0.490371,0.558052,0.617051,0.674301,0.735175,0.789629,0.845232,0.904321,0.903016,0.957565,0.984326,0.998965,0.996136,0.959274,0.920642,0.845669,0.704214,0.610033,0.480521,0.374133,0.269042,0.197598,0.152189,0.098771,0.077171,0.048946,0.026667,0.030323,0.011583,0.012158,-0.000946,0.001681,-0.006480,0.010128,-0.011678,0.007870,-0.001887,0.011721,0.007512,0.018208,0.007308,-0.015720,-0.000669,-0.011720,-0.005183,0.015112,0.006375,-0.006989,-0.010137,0.000328,-0.012166,-0.006711,0.003120,0.011553,0.006088,-0.022913,0.003044,0.000720,0.004139,0.016162,-0.020632,-0.005911,0.005909,-0.015816,0.014759,0.003684,0.008466,-0.005709,0.008138,0.010685,0.002329,0.002344,0.002703,-0.008633,-0.001475,-0.001525,0.003834,0.009998,-0.010585,-0.001250,0.014815,-0.007436,-0.008223,0.002023,0.008444,0.000114,0.013290,0.008568,0.008418,0.005541,0.023277,-0.002052,-0.020035,0.016043,-0.004577,0.001079,0.013096,-0.016023,-0.012516,-0.016013,-0.007941,0.004396,0.005242,0.002763,-0.014128,-0.023101,0.000544,-0.004718,0.004594,0.007020,0.001382,0.007601,0.002292,0.005301,-0.007047,1
-0.001796,0.001968,0.008205,-0.003937,0.005212,-0.002658,-0.001175,0.008295,-0.019931,-0.012965,-0.014822,-0.023336,-0.006783,0.007494,-0.002849,0.001978,0.010892,0.013277,-0.000691,0.013536,0.000921,-0.008374,-0.005944,-0.014805,-0.008881,-0.003580,0.008036,0.017208,-0.013822,0.003928,-0.010405,0.004747,-0.001311,-0.018309,0.009283,-0.006050,-0.005339,-0.010698,-0.006543,0.004279,-0.001892,0.003287,0.003619,0.013207,-0.003428,-0.014769,0.010672,-0.003315,0.011146,0.003834,-0.001311,0.003488,0.019511,0.020771,0.000695,0.001604,0.010767,-0.008449,0.003344,-0.000235,0.003178,-0.008269,-0.015790,-0.020561,-0.010906,-0.004168,-0.002288,0.020351,0.012526,-0.007454,0.006639,0.000481,0.003625,0.010928,0.018761,0.013797,0.033856,0.019552,0.040873,0.079100,0.070555,0.101163,0.109965,0.141165,0.165499,0.199702,0.233692,0.290581,0.327063,0.395659,0.456821,0.509354,0.564327,0.633865,0.687727,0.759627,0.787962,0.854054,0.882425,0.924883,0.982522,0.997642,0.991534,0.979816,0.924581,0.872578,0.799419,0.661296,0.528895,0.422254,0.297800,0.223018,0.157602,0.103461,0.074725,0.044604,0.031070,0.007019,0.016606,0.020318,-0.007653,-0.007874,0.013831,-0.001698,0.014132,-0.004386,0.014567,0.001321,0.002585,0.015648,-0.003617,-0.009411,-0.004486,0.004523,-0.015658,0.006375,-0.005388,0.011478,-0.023943,-0.007866,-0.016865,-0.008262,0.002477,-0.001792,-0.002534,-0.001592,0.002034,-0.010085,0.007068,0.006627,0.003850,0.005565,0.002964,0.020351,-0.000871,-0.003071,-0.007535,-0.010323,-0.012445,-0.008888,-0.000707,0.003343,0.000511,-0.007655,0.009002,0.007394,-0.001596,-0.006529,0.005484,0.001880,-0.014481,-0.000680,0.002620,-0.008997,0.001898,-0.014548,0.013362,0.012479,-0.002525,0.003635,-0.024099,-0.011563,-0.002938,-0.010721,0.007144,0.019973,-0.011766,-0.008375,0.002354,0.016111,-0.012224,0.002490,0.018213,-0.016518,-0.012811,-0.004236,-0.005206,0.008126,0.002417,-0.017750,1
0.005154,-0.005775,0.012744,-0.006276,-0.006366,0.005411,0.007629,0.004481,-0.016856,0.005380,-0.010343,0.002353,-0.014237,0.004463,-0.008066,-0.012826,0.007138,0.002416,-0.006140,0.014512,-0.004407,0.000321,0.002689,-0.006197,0.004711,-0.005335,-0.004116,0.013626,-0.010406,-0.024128,0.016109,0.025493,-0.004053,-0.019368,-0.003105,-0.002862,-0.001899,-0.011134,0.005796,0.005245,-0.014944,0.006992,0.020527,0.001720,-0.003373,-0.001420,0.006153,-0.017307,0.001644,-0.003905,0.018478,-0.001742,0.016679,-0.011037,0.005873,0.003194,-0.008690,0.001774,0.012126,-0.003237,-0.016918,-0.000172,-0.009018,-0.003412,-0.000797,-0.017025,-0.016105,0.004905,-0.005091,-0.025431,0.008188,0.003248,-0.006338,-0.011962,0.010151,0.006124,0.027637,0.009654,0.011578,0.009072,0.022965,0.026385,0.039578,0.030716,0.042774,0.056286,0.086119,0.113952,0.119172,0.148707,0.189980,0.223137,0.278781,0.295191,0.362350,0.419633,0.464274,0.540082,0.603869,0.674048,0.748516,0.793034,0.838516,0.895370,0.945977,0.956551,0.978403,1.004048,0.993088,0.960382,0.874738,0.775020,0.635072,0.519248,0.398153,0.283320,0.193348,0.148494,0.088493,0.047065,0.033239,0.030860,-0.012056,-0.009304,-0.006367,0.015999,0.003472,0.007962,-0.011278,-0.011144,0.004498,0.000590,0.005490,-0.001876,0.002782,0.001581,0.007778,0.008070,-0.016199,-0.022473,0.010017,0.011877,-0.010206,-0.018598,0.000990,0.009308,0.017976,0.005163,-0.003717,-0.008931,0.000115,-0.002993,-0.010151,0.020488,0.017852,0.011360,-0.009209,0.008550,0.006396,0.004425,0.012497,0.006354,0.007400,0.006369,0.003408,-0.017836,0.000836,-0.005562,-0.012798,0.016818,0.017290,0.013592,0.002552,0.013506,0.000121,0.002028,-0.010935,0.003970,0.000604,-0.013027,-0.000512,-0.000797,0.017976,0.008942,0.000114,0.002488,0.000442,-0.002029,-0.010824,-0.001511,-0.007461,-0.012503,0.005112,0.003913,-0.017867,-0.001227,0.009957,0.010592,0.010258,0.000389,1
-0.008450,-0.010837,0.003446,0.003793,0.012873,0.011000,-0.001322,-0.012442,-0.003191,0.002172,-0.002021,-0.005779,0.002529,-0.005040,-0.006281,0.003115,-0.004020,0.002441,0.002732,-0.011394,-0.004812,0.014378,-0.011621,-0.021167,-0.018618,0.000291,0.000309,-0.001176,0.012142,-0.026728,0.003959,0.015614,-0.011278,-0.003798,-0.007529,-0.008943,-0.003263,0.014275,0.018374,-0.003359,0.019051,0.000356,0.017537,-0.000933,0.001311,0.003655,0.031789,0.008513,-0.007073,0.009690,-0.003618,-0.004898,0.009086,0.000311,0.002786,0.000140,0.003366,0.004250,-0.019370,0.006666,-0.009820,-0.014423,-0.000584,0.000840,-0.006934,0.008312,-0.013418,-0.004063,-0.005838,-0.000448,0.002819,-0.010029,0.007323,0.000760,-0.018713,-0.019262,0.000378,-0.001444,0.000121,0.001442,0.004789,0.013157,-0.005830,-0.004236,-0.000460,0.017367,0.032218,0.022350,0.010509,0.029722,0.052480,0.072553,0.095098,0.124792,0.151077,0.199349,0.221823,0.264797,0.328015,0.362295,0.440012,0.498824,0.560177,0.642291,0.684401,0.773325,0.808807,0.851232,0.910681,0.936833,0.968147,0.997271,1.005506,0.974761,0.928428,0.832488,0.714683,0.575668,0.457186,0.310578,0.230434,0.149591,0.103614,0.057614,0.035754,0.039947,0.009702,0.010018,0.000577,0.002124,0.000676,0.004749,0.011763,0.016517,0.003112,0.005901,-0.011507,-0.000878,0.009403,0.008660,0.002116,0.008864,0.004908,0.012003,0.002894,-0.003557,0.003358,-0.029306,0.003829,-0.036484,-0.017235,0.004518,0.004775,-0.011624,-0.007121,0.013705,-0.004840,0.022429,-0.000019,0.004080,0.016169,0.001310,-0.010023,-0.001097,-0.000356,-0.013647,-0.002558,-0.007422,0.009244,0.000346,-0.002828,-0.001062,0.002231,0.006168,-0.009997,-0.010416,0.011047,-0.004123,-0.014168,0.004438,0.004634,-0.015307,0.002295,0.007356,0.003744,0.006320,-0.014043,0.003310,-0.003026,-0.004828,0.008706,0.014793,0.017944,0.013148,-0.001097,0.003527,0.007668,0.001212,0.001308,0.008238,1
-0.000593,-0.007293,-0.004145,0.006339,0.000030,0.003402,0.006701,-0.003748,0.007562,0.003788,-0.012348,0.014423,-0.005007,-0.016551,-0.010450,-0.010210,0.000522,-0.002739,-0.003368,0.006197,0.003399,0.003160,0.004098,0.006161,-0.021080,-0.003644,-0.021802,0.000361,-0.000046,0.010455,0.011876,0.002028,-0.005004,0.004852,-0.005279,-0.000014,0.009861,-0.005578,0.008057,0.006774,-0.009548,0.009739,0.006986,0.001019,-0.007623,-0.008592,-0.005377,0.005426,-0.009556,0.004375,-0.012418,-0.002041,0.001096,0.024451,-0.013773,0.014720,0.001498,0.004112,0.001183,0.004447,-0.001537,0.014541,-0.004565,0.011322,-0.006444,-0.000602,-0.010719,0.004551,0.014452,-0.000772,-0.001967,-0.011142,-0.002286,-0.015916,-0.009109,0.002301,0.013245,0.028182,-0.005721,0.014582,0.002796,-0.000958,0.005173,0.001896,0.003006,-0.001286,-0.009918,-0.009607,0.014792,0.008792,0.010016,0.021897,0.037362,0.040980,0.044983,0.079252,0.101793,0.114013,0.146378,0.181531,0.218066,0.255891,0.304015,0.356560,0.398285,0.477977,0.521931,0.593612,0.680735,0.740669,0.808379,0.846911,0.887384,0.937348,0.971828,0.991804,1.011015,0.981869,0.928907,0.817042,0.707752,0.569242,0.431020,0.319214,0.222634,0.146471,0.112089,0.055863,0.030164,-0.003170,0.000317,0.001955,-0.004696,0.014788,-0.001234,0.013054,0.000683,0.000397,-0.000879,0.000041,0.017189,-0.023196,-0.020015,-0.005432,0.000145,0.006901,0.004731,-0.003842,0.010190,0.010302,0.001841,0.009627,0.002726,-0.005615,0.006978,0.001106,0.000013,0.014730,-0.024509,-0.014177,-0.011871,-0.003633,-0.002546,-0.015073,-0.009852,-0.008608,0.024574,0.018017,-0.004117,-0.003636,-0.011492,-0.019081,-0.001169,-0.009979,-0.000849,-0.016002,-0.007620,0.001486,0.003662,0.004175,-0.013205,0.008547,-0.008002,0.006329,-0.000106,-0.013764,-0.003162,0.003654,0.006130,-0.001410,0.015318,0.010075,-0.002567,0.007501,0.019338,0.019605,-0.012280,-0.009265,0.014849,-0.010583,1
-0.013225,-0.004862,0.004202,-0.001024,-0.006506,-0.006742,-0.007123,-0.008795,0.022816,0.002975,0.008868,-0.004891,-0.001860,-0.007136,-0.026517,-0.013780,-0.018106,-0.022498,-0.011954,0.013250,-0.000444,0.012906,0.004110,0.007826,-0.009009,0.005240,0.007287,-0.005766,0.005595,0.005662,-0.005496,-0.011228,-0.011841,0.000865,0.003270,-0.007925,0.000266,0.005705,0.006182,0.015519,0.012770,-0.010013,0.016836,-0.005310,0.010449,0.000680,-0.004121,-0.018077,-0.001716,-0.015594,0.009673,0.015168,-0.007969,0.003020,-0.007254,-0.006285,0.007745,-0.000385,0.017396,-0.004822,0.009993,0.000974,0.007958,-0.004472,-0.000496,-0.001155,-0.008361,0.006621,0.006503,0.005936,0.015370,0.014494,-0.003749,0.003731,-0.006234,0.000237,-0.005992,0.016210,0.003653,-0.002154,0.011980,-0.021635,-0.020025,0.008144,0.000898,0.002962,-0.012559,0.000840,0.021646,0.010634,0.005203,0.000685,0.003312,-0.011044,0.016867,0.028136,0.011012,0.029340,0.036118,0.052824,0.081361,0.082419,0.136429,0.169873,0.197236,0.217912,0.281296,0.357481,0.376134,0.463310,0.520911,0.608406,0.661403,0.738356,0.802605,0.872483,0.901921,0.948489,0.960150,1.005560,0.992395,0.968668,0.900264,0.773921,0.659014,0.527860,0.390790,0.259504,0.184247,0.125927,0.053040,0.030539,0.031278,0.014345,0.009832,0.021253,0.005859,0.007070,0.027303,-0.002065,-0.007953,0.004287,0.004393,-0.005266,-0.010324,0.023099,0.003268,-0.007323,0.009159,-0.001091,-0.002529,0.005623,-0.012919,0.003526,0.019130,0.004662,-0.003762,-0.005071,-0.004103,-0.002540,-0.003778,0.009163,-0.017332,0.008620,-0.003797,0.003769,-0.011270,0.013286,0.012456,0.009596,-0.015148,0.008291,0.004049,-0.016053,-0.000243,0.003645,0.005561,0.001773,0.002912,0.014736,0.012260,-0.028671,-0.003174,-0.001647,-0.017521,0.000942,0.012488,-0.010866,0.003364,-0.009158,-0.006719,0.014774,-0.005426,0.004622,-0.018712,0.018623,0.006027,-0.001825,0.005755,-0.014098,1
0.011825,-0.003240,-0.002041,-0.004917,-0.005807,0.006947,0.002559,0.006517,-0.000088,0.005132,-0.004188,0.022297,-0.015679,0.012609,0.013679,-0.008522,0.022293,0.009955,0.009711,0.000280,-0.002172,-0.002094,0.003905,0.014012,0.001813,-0.009114,0.008244,0.009212,0.006547,0.007455,-0.002709,-0.009290,-0.008682,-0.016355,0.002369,-0.000834,-0.004400,-0.029556,-0.012473,0.011208,-0.006646,0.003606,-0.013907,0.014387,-0.001440,0.002900,0.023258,0.015164,-0.003066,-0.005932,-0.003255,0.005099,-0.001052,-0.003952,0.014672,-0.001142,0.022996,0.000907,0.017853,0.003573,0.009630,-0.007246,-0.008538,0.004597,0.009886,0.000403,-0.012864,-0.013603,-0.014271,-0.017676,0.001095,0.011250,-0.000134,-0.022604,-0.001907,-0.001628,0.020960,-0.014571,-0.003905,0.017061,0.004505,0.005641,0.001160,0.003323,0.007816,-0.008030,0.008887,-0.013559,0.003556,0.002215,-0.005500,0.000788,-0.004691,-0.008425,-0.000155,-0.006115,0.010313,-0.001438,0.021233,0.007730,0.021061,0.029831,0.061336,0.066577,0.080082,0.110408,0.112397,0.166380,0.225776,0.251954,0.301962,0.362966,0.427626,0.463982,0.535318,0.623819,0.683762,0.770874,0.817011,0.856704,0.910746,0.933033,0.983585,0.996719,0.987568,0.946435,0.846562,0.702101,0.539740,0.428997,0.306717,0.205824,0.138779,0.065872,0.064115,0.014029,0.019467,-0.011140,-0.006710,0.016271,-0.002162,0.008569,0.002431,-0.001029,0.013645,-0.002365,-0.017807,-0.008032,0.005512,0.003955,-0.015671,-0.007243,-0.005817,-0.003655,-0.013759,-0.006284,-0.007286,0.007715,0.008091,-0.001458,-0.003920,0.001399,-0.008166,-0.011468,-0.009402,-0.006348,-0.011635,0.001621,0.007297,-0.015871,0.000251,-0.002199,0.003415,-0.000129,-0.014536,-0.012624,0.000294,0.010288,-0.022142,0.003457,0.011896,-0.001530,0.005502,-0.007031,-0.001194,-0.016209,-0.023443,0.009428,-0.009850,-0.004555,-0.013864,-0.014100,-0.001738,-0.007296,0.003780,0.004525,0.003208,0.002386,0.015778,-0.010676,1
-0.000549,0.011327,0.012645,-0.014218,-0.003124,0.013581,0.005081,0.001953,-0.002177,-0.003838,0.002882,-0.002524,-0.000426,0.000786,-0.006781,0.005321,0.029142,-0.017770,0.003240,-0.007602,0.005774,0.000466,0.007619,0.011755,0.001924,0.011321,-0.023443,0.015905,0.003751,0.010778,-0.012199,-0.008308,0.001459,-0.000170,0.002831,0.010845,-0.017652,0.009738,0.000083,-0.002038,-0.014711,0.005030,-0.024141,0.006484,-0.014921,0.000535,-0.001192,0.011695,-0.001787,-0.006941,-0.005066,0.012729,0.005363,-0.003856,-0.002364,-0.015672,0.003885,-0.017598,0.007518,0.001286,0.023870,-0.011001,-0.001027,0.017983,0.011914,-0.006962,0.002240,0.000020,0.002820,-0.006987,-0.000893,-0.015981,0.001351,0.004500,-0.002274,-0.016150,0.009885,0.003645,-0.007260,-0.002806,-0.015006,-0.010253,-0.005377,0.012287,-0.006390,0.006411,-0.005369,0.002504,-0.001373,0.008798,-0.005237,-0.015546,-0.013534,-0.004869,-0.011790,0.005179,-0.003023,0.026196,-0.013751,0.007336,-0.003632,0.005960,0.016733,-0.001989,0.031505,0.058433,0.048060,0.071881,0.100316,0.113902,0.140451,0.159928,0.231548,0.272610,0.318239,0.389845,0.447774,0.517051,0.599339,0.651255,0.744844,0.786272,0.853367,0.930626,0.963719,0.982440,0.987816,0.990596,0.946368,0.846440,0.712228,0.565871,0.421178,0.283601,0.192353,0.132364,0.058656,0.038065,0.012570,0.011265,0.000781,0.016791,0.005886,-0.012805,0.006825,-0.007709,-0.005758,0.003142,-0.004916,0.008929,-0.007745,-0.006189,-0.006564,-0.005656,0.010992,0.006288,0.017099,0.022676,-0.010307,0.000704,-0.011762,-0.007776,-0.006301,-0.010572,-0.010519,-0.001443,-0.012167,0.008421,-0.009178,0.028096,-0.004514,0.000720,-0.012953,0.017061,0.011195,0.002969,-0.013468,0.002107,-0.011214,0.014624,0.008092,0.000954,-0.024364,-0.009834,0.006878,0.012129,0.011092,-0.015920,0.003016,0.010155,-0.016583,-0.000079,0.002738,-0.003008,-0.018522,-0.003257,-0.003273,-0.001481,-0.005635,-0.004430,1
-0.000397,0.004425,-0.003044,-0.004096,0.000924,-0.019209,0.004770,-0.000006,0.000397,0.009607,-0.019528,-0.019738,0.002738,-0.000071,0.001702,-0.004621,0.006644,0.009326,0.004840,-0.002608,-0.021077,0.007692,0.012217,0.006446,-0.008796,0.006738,0.008605,0.015588,-0.008761,-0.002265,0.007473,0.000574,-0.011173,0.004146,0.005787,0.000880,0.002196,-0.002587,0.014783,-0.009007,-0.005873,0.000110,0.008790,-0.014974,-0.013103,-0.020377,0.000327,-0.011183,-0.003846,0.006614,-0.006415,0.002313,-0.002993,0.006721,0.004751,-0.006919,-0.001687,0.010437,0.003934,-0.013970,0.006556,-0.010846,0.014125,0.010241,0.002899,0.001572,-0.002090,0.006785,-0.003708,0.002356,0.008719,-0.005618,-0.006162,-0.011944,-0.010645,-0.018284,0.007298,0.018089,0.014253,-0.016261,0.007249,0.014221,-0.004568,0.001015,-0.020078,0.002668,-0.010634,0.002000,-0.015606,0.005438,0.010262,-0.007803,-0.011321,-0.021481,-0.002534,-0.005606,-0.015174,0.005061,-0.003673,-0.009485,-0.003612,0.013615,0.010328,0.004985,0.015261,0.001310,0.018482,0.026660,0.029771,0.050899,0.054199,0.086579,0.111138,0.105867,0.182182,0.181273,0.253500,0.324221,0.371130,0.425278,0.498818,0.592504,0.636286,0.738659,0.794901,0.845352,0.904595,0.942529,0.990924,1.005089,0.976370,0.931681,0.818669,0.699423,0.520985,0.406394,0.267014,0.160045,0.096541,0.050246,0.018034,0.016177,-0.005224,-0.018744,-0.002555,-0.017557,-0.007354,-0.009035,-0.008695,0.020015,0.000565,0.002454,-0.017764,-0.006540,0.002153,-0.010245,0.009081,-0.012027,-0.002864,-0.005861,0.001643,-0.006405,-0.002709,-0.002361,-0.007344,0.004851,0.002384,-0.000886,-0.004305,0.007965,-0.002358,-0.003067,0.001047,0.016966,-0.013404,0.007699,-0.018932,0.002173,0.015751,0.004887,0.001706,-0.005604,0.000310,-0.002521,-0.007860,-0.002899,0.001984,-0.007672,-0.008063,-0.013602,0.003907,0.005453,0.002317,0.009652,0.000879,0.003920,0.003038,-0.000915,-0.005308,0.022142,1
-0.004520,-0.006659,0.004340,0.002519,-0.014048,0.011227,-0.000942,-0.011109,0.011888,0.006257,-0.012645,0.017772,0.006588,-0.000102,0.015902,0.001593,-0.000281,-0.006603,0.005819,0.004766,0.000147,-0.007900,0.001299,-0.000698,-0.013335,-0.014718,0.005652,-0.026019,0.002054,-0.004781,0.013082,-0.004935,0.006595,-0.003969,0.001137,0.007368,-0.004626,0.009966,-0.009937,0.002946,0.009226,0.006600,0.019164,-0.007634,-0.013791,-0.009943,0.006604,0.004979,0.001023,-0.011230,0.007669,-0.012247,0.011589,0.028574,0.003665,0.005831,-0.004929,-0.018102,-0.006027,-0.010929,-0.014470,0.017224,0.002729,0.003797,-0.003090,-0.001729,0.009646,-0.000323,0.005307,-0.001960,-0.003422,-0.014069,-0.019777,-0.002616,0.000565,-0.012861,-0.000345,0.000538,-0.021560,-0.009151,0.004073,0.003871,-0.011537,0.001585,0.010224,0.007771,-0.000953,-0.004679,-0.006293,0.004680,0.001953,0.006298,0.001326,0.008200,0.000968,0.007884,0.008771,-0.007941,-0.017911,0.015711,0.003007,-0.016450,-0.006056,0.009382,-0.000273,-0.001340,0.019596,-0.002324,0.003746,0.018764,0.027223,0.037175,0.052999,0.060950,0.083011,0.099446,0.132025,0.167871,0.210844,0.265069,0.318275,0.374903,0.433692,0.514160,0.587639,0.664973,0.758535,0.800363,0.871973,0.931007,0.961961,1.011203,0.995749,0.984374,0.894260,0.772333,0.626108,0.476836,0.331766,0.227815,0.130633,0.071737,0.066974,0.023752,0.001964,-0.002997,-0.007844,0.009957,-0.003438,0.001340,-0.000615,0.007321,-0.008466,-0.010755,0.002243,0.006010,0.003325,-0.008095,0.006775,-0.007439,-0.005215,-0.009440,0.013012,0.006334,0.006050,0.012472,0.028126,-0.017092,-0.007384,-0.006162,-0.008508,-0.010776,-0.002997,-0.012166,0.003350,0.000517,0.004810,0.005077,0.006030,-0.003734,0.021211,0.002344,-0.018625,-0.010024,-0.017405,0.000173,-0.001218,-0.004684,0.020109,0.005490,0.007261,-0.009311,-0.009991,0.000368,0.001730,-0.018563,-0.001803,0.000141,-0.002151,-0.008134,1
-0.005395,-0.001769,0.000908,0.006048,0.010809,-0.002943,-0.004562,0.004377,0.006108,-0.004342,0.007904,0.009796,0.012917,0.017783,-0.008664,0.000139,0.000113,-0.000981,-0.006493,-0.014856,0.000927,-0.007684,0.000860,-0.007940,-0.010997,0.002343,0.001509,0.005793,0.021859,0.002773,0.004851,-0.010776,-0.012869,0.015828,-0.009235,-0.010439,-0.000391,-0.000902,-0.009025,-0.003050,0.012294,-0.008060,-0.013937,0.009426,0.004923,-0.006205,-0.015822,-0.007446,-0.000547,0.011657,-0.010366,-0.000845,0.006751,-0.023813,0.010338,-0.011825,0.003320,0.002467,0.010846,0.005509,-0.023773,-0.007848,0.001382,-0.001950,0.004776,0.007894,0.006085,-0.002143,-0.018463,-0.004555,0.004164,-0.010904,0.006313,0.009084,0.001269,-0.030638,-0.012781,0.018862,-0.005465,-0.019841,0.012352,0.000134,0.011049,0.002770,0.004586,0.003630,0.006975,0.022774,0.009710,-0.015803,0.004467,0.011415,0.012028,-0.004264,0.011653,0.009284,0.025736,-0.007481,-0.005042,-0.003006,-0.004810,-0.008748,-0.027378,-0.003946,0.004332,-0.003929,0.020910,0.002517,0.016511,0.007982,0.016157,0.014241,0.030065,0.023661,0.037091,0.047716,0.056652,0.083349,0.126433,0.131918,0.175730,0.227888,0.277593,0.324220,0.364749,0.463882,0.510901,0.624544,0.688340,0.770836,0.820541,0.874389,0.941767,0.974590,0.990478,0.998507,0.973407,0.843478,0.697146,0.533853,0.388771,0.245589,0.131660,0.085066,0.054236,0.013002,0.008601,-0.002530,0.016741,0.008120,0.006726,0.006282,-0.000354,0.001981,-0.011851,-0.021864,0.001501,0.003240,0.012093,0.015713,0.015700,-0.009980,-0.003523,0.004803,0.025319,0.014801,0.011194,-0.003878,-0.008832,0.007889,-0.011007,-0.002384,-0.001148,0.015929,-0.003547,-0.024392,0.005044,-0.006990,0.000426,-0.000867,-0.002737,0.007903,-0.015329,-0.005170,0.006840,-0.006141,-0.016088,0.006686,0.011231,-0.000450,-0.019608,0.007060,-0.016599,0.003088,-0.008875,-0.011598,-0.004419,-0.001833,-0.006442,0.005887,1
-0.004461,0.009802,0.002812,-0.006976,-0.008659,-0.016475,0.002907,-0.003546,-0.023722,-0.005357,-0.009010,0.015757,-0.017028,-0.014414,0.011100,0.013568,-0.007450,-0.006321,0.006162,-0.023271,-0.018612,-0.002807,0.015499,-0.004357,0.001009,0.011338,0.021069,-0.005768,-0.000168,0.018221,-0.015222,0.010276,-0.010183,0.001025,-0.002426,-0.009580,-0.009831,0.002764,0.009955,-0.001297,0.000701,0.005712,-0.009716,0.007397,0.008193,0.026036,-0.003761,-0.004581,0.007690,0.008191,-0.005351,-0.004032,0.005411,-0.008276,-0.004105,0.000896,0.009959,-0.006046,-0.018424,-0.019166,-0.012594,-0.013132,-0.001546,-0.011889,-0.007028,-0.007741,-0.004405,0.013225,0.006619,0.000161,-0.004610,-0.004332,0.003277,0.005842,-0.009076,0.000365,-0.020316,0.002117,0.007621,-0.002801,0.018165,-0.008812,0.002174,-0.000358,-0.001003,-0.001143,0.001071,0.008480,0.013777,-0.000022,0.008153,-0.007018,0.007660,-0.007620,0.010907,0.022107,-0.001219,-0.021922,-0.005475,0.012329,0.005549,0.002520,0.010139,0.004934,0.012326,0.009439,0.015615,0.004226,0.010064,-0.001491,-0.003578,0.020774,0.007722,0.016273,0.013232,0.011381,0.024550,0.048492,0.052523,0.046565,0.082889,0.129676,0.142734,0.166742,0.250859,0.293409,0.347805,0.413305,0.501765,0.563125,0.659068,0.730797,0.801356,0.866497,0.918952,0.973575,0.981394,0.983746,0.973957,0.875531,0.728719,0.562819,0.396222,0.272184,0.161344,0.086703,0.044772,0.043335,-0.007040,0.009237,-0.015185,-0.000521,-0.004156,-0.020797,0.003905,-0.003797,-0.020991,0.008396,0.014350,0.014901,0.003590,0.000461,0.013282,0.016824,0.011336,-0.009415,0.002013,0.004395,-0.018096,0.004694,0.022730,0.006399,0.014734,0.001829,-0.000732,0.003813,-0.008158,-0.009638,0.012663,0.013723,-0.009911,0.009680,-0.000870,0.003398,0.004602,0.009944,0.000827,0.014102,0.003094,0.006242,-0.008333,0.021587,0.004698,0.007130,-0.016082,-0.008227,0.012379,0.002869,-0.019138,0.010383,1
-0.005438,0.014113,-0.000878,0.002047,0.011790,-0.008975,-0.009928,-0.001965,0.008272,-0.013309,-0.016680,0.008237,-0.006030,-0.003922,-0.018568,-0.006790,-0.000076,0.009304,-0.007712,0.016574,-0.006846,-0.006831,0.015374,0.002115,-0.005520,-0.001551,0.013531,0.014662,-0.008168,-0.000424,0.000902,-0.009862,-0.000557,0.000053,0.011402,0.012074,-0.003292,-0.002140,0.006643,-0.005852,0.005886,-0.000879,-0.009694,-0.009568,0.014471,-0.001564,0.016404,-0.005136,0.002912,0.023927,-0.010574,-0.018978,0.012866,-0.008268,-0.000207,-0.005859,0.002682,-0.009505,-0.001799,0.004498,-0.010083,-0.007001,-0.003474,-0.014288,-0.004226,0.001188,-0.003995,-0.002714,-0.000199,-0.006557,0.006911,0.014360,-0.004644,0.004852,-0.002396,0.003655,0.015658,0.005087,-0.017734,0.004540,0.012329,-0.002216,0.009956,-0.006901,-0.014855,0.001412,-0.017565,-0.002398,0.012868,-0.019098,-0.012795,-0.010320,-0.000633,-0.003657,0.013991,0.009544,0.004953,0.001457,0.003933,-0.008618,0.008575,-0.011115,0.008364,0.011880,0.002141,-0.001706,0.004098,-0.028456,0.003286,-0.000703,0.000188,0.008171,0.000989,-0.008711,0.002697,0.006866,0.010339,0.015063,0.029772,0.016658,0.040247,0.065917,0.054558,0.097796,0.120296,0.159423,0.198504,0.258075,0.338188,0.374447,0.449004,0.525973,0.637040,0.695667,0.777164,0.843757,0.898566,0.952629,1.010684,1.013451,0.968066,0.889474,0.728853,0.550070,0.413477,0.275489,0.169439,0.083418,0.043234,0.028518,0.012949,-0.000374,-0.014903,0.001565,0.010919,-0.011940,0.006397,0.003318,0.007502,0.008720,-0.006945,-0.016170,-0.005335,0.008891,-0.005420,-0.006940,-0.018214,0.017526,0.008257,0.007699,0.009677,0.005767,-0.002443,-0.001638,-0.004276,0.026347,0.005559,-0.004638,0.004655,-0.010109,0.015045,-0.006611,0.005011,0.010660,0.003848,0.000945,0.000108,-0.000564,-0.005767,-0.004495,0.014796,-0.001085,-0.007858,-0.005163,0.011004,0.006756,0.005603,-0.002575,0.005734,-0.006436,1
-0.002596,0.009698,0.008743,-0.009819,-0.008555,0.001087,0.017261,-0.019156,0.002783,-0.013760,-0.006343,-0.003644,-0.004205,-0.005338,0.000072,-0.005353,-0.014625,0.007799,0.007529,0.008432,-0.015407,0.002989,0.006760,-0.010312,0.000092,-0.001163,0.018422,0.019245,-0.016644,0.024939,-0.009152,0.009807,0.009705,-0.009957,0.004933,-0.001075,0.005543,0.002307,0.011963,0.000754,-0.001679,0.010961,0.005804,0.007318,-0.006646,-0.010453,-0.005677,-0.006208,0.007862,0.009760,-0.001551,0.014309,0.013685,0.002434,-0.008219,0.015754,-0.000610,0.001262,-0.003396,-0.008898,-0.014686,0.006329,-0.007834,0.030595,-0.010861,-0.012574,0.005101,0.015293,0.000646,0.005722,-0.018435,-0.006775,-0.010736,-0.018950,0.001170,-0.022428,-0.013222,-0.005372,-0.008313,0.003964,0.003056,0.008938,0.007524,0.011408,-0.000019,0.003035,0.005115,0.001417,-0.003972,-0.003324,-0.008176,0.004216,-0.000940,-0.006632,-0.006622,-0.012104,0.009788,0.000786,-0.008628,0.008086,-0.005604,-0.014064,0.010214,-0.005367,-0.004082,0.000424,0.011447,0.000237,-0.011927,0.005548,-0.004665,0.019187,0.000494,-0.021532,0.004881,0.021505,0.018956,0.023203,-0.002817,0.020089,0.008833,0.025382,0.020108,0.039427,0.056302,0.094295,0.121530,0.151346,0.177710,0.238815,0.293405,0.376383,0.453261,0.531259,0.595570,0.658544,0.748164,0.853408,0.898340,0.944388,1.001368,1.012077,0.976633,0.876203,0.726264,0.555279,0.401680,0.250827,0.151695,0.089118,0.026257,0.024547,0.004005,-0.022569,-0.020401,-0.009909,0.005389,0.001158,0.001848,0.019510,-0.012691,-0.000274,0.003044,-0.007363,0.000283,-0.015999,0.014099,-0.006816,0.020314,-0.000325,0.010281,-0.000533,-0.000307,-0.005840,0.001191,0.003180,-0.007843,-0.001250,-0.006101,0.022997,-0.000897,0.015452,-0.001956,0.002593,-0.013214,-0.004471,0.002105,0.015860,0.002220,0.013837,0.006407,0.016274,-0.000590,0.023902,-0.004854,-0.007665,-0.012101,0.023310,0.008194,-0.003341,1
0.012490,0.006877,0.019661,-0.015478,-0.002654,-0.004625,-0.019737,0.010603,-0.002704,0.007396,0.023598,-0.003532,-0.004212,0.001187,0.009872,-0.005667,-0.006310,0.010572,0.003786,-0.020447,-0.012254,0.015012,0.004019,-0.007622,-0.001704,0.000132,0.007357,-0.013583,-0.008409,0.002730,-0.000998,0.005719,-0.012295,0.003571,0.010916,0.004868,0.001391,-0.000959,-0.008349,-0.000720,0.012597,-0.001190,-0.008898,-0.004922,0.002009,-0.003735,0.004853,0.005228,0.008890,0.014236,0.009959,-0.009342,-0.009035,-0.000758,-0.004512,-0.011383,-0.004417,-0.004745,-0.006718,-0.003158,0.011785,0.001992,0.024718,0.001705,-0.002901,0.000041,0.002565,0.004353,0.020767,-0.008453,0.008590,0.002078,-0.015711,0.007707,0.012676,-0.008572,-0.000089,-0.017254,-0.012588,0.010480,-0.004664,-0.011088,0.002295,-0.005224,-0.004708,0.007393,-0.011617,-0.009054,0.001541,0.009694,0.012382,-0.006651,0.009374,-0.007841,0.018262,-0.011338,0.013285,-0.006565,0.020132,0.005913,-0.010160,-0.005222,0.007812,0.010527,-0.000706,0.000449,0.007588,0.001326,-0.012920,-0.008103,0.002398,0.012235,0.016298,0.008029,0.003262,0.008128,-0.005629,0.000129,-0.005623,-0.008420,0.009559,0.011233,0.020790,0.025782,0.031635,0.046872,0.057034,0.082737,0.098468,0.143480,0.188293,0.225117,0.291159,0.351600,0.427263,0.501902,0.610067,0.692977,0.769720,0.859323,0.902242,0.984573,0.984603,1.002381,0.963300,0.861054,0.703452,0.513856,0.366095,0.217255,0.123456,0.052674,0.032910,0.010795,-0.001430,-0.006148,0.027226,-0.002490,-0.014533,-0.006974,-0.000514,0.005467,0.005548,0.006766,-0.006449,0.003404,-0.008761,-0.006196,-0.009177,-0.011884,0.010642,0.006886,0.009767,0.000393,0.007768,-0.017613,0.008631,0.001771,0.006271,0.003800,-0.009871,-0.014980,-0.007121,0.005649,0.006901,-0.013679,-0.009811,-0.007232,-0.003573,-0.013621,-0.014221,-0.008218,0.000863,-0.011806,-0.001158,0.010586,-0.013018,-0.002064,0.010248,-0.004183,1
