@Relation toy_slide

@attribute att1 numeric
@attribute att2 numeric
@attribute att3 numeric
@attribute att4 numeric
@attribute att5 numeric
@attribute att6 numeric
@attribute att7 numeric
@attribute att8 numeric
@attribute att9 numeric
@attribute att10 numeric
@attribute att11 numeric
@attribute att12 numeric
@attribute att13 numeric
@attribute att14 numeric
@attribute att15 numeric
@attribute att16 numeric
@attribute att17 numeric
@attribute att18 numeric
@attribute att19 numeric
@attribute att20 numeric
@attribute att21 numeric
@attribute att22 numeric
@attribute att23 numeric
@attribute att24 numeric
@attribute att25 numeric
@attribute att26 numeric
@attribute att27 numeric
@attribute att28 numeric
@attribute att29 numeric
@attribute att30 numeric
@attribute att31 numeric
@attribute att32 numeric
@attribute att33 numeric
@attribute att34 numeric
@attribute att35 numeric
@attribute att36 numeric
@attribute att37 numeric
@attribute att38 numeric
@attribute att39 numeric
@attribute att40 numeric
@attribute att41 numeric
@attribute att42 numeric
@attribute att43 numeric
@attribute att44 numeric
@attribute att45 numeric
@attribute att46 numeric
@attribute att47 numeric
@attribute att48 numeric
@attribute att49 numeric
@attribute att50 numeric
@attribute att51 numeric
@attribute att52 numeric
@attribute att53 numeric
@attribute att54 numeric
@attribute att55 numeric
@attribute att56 numeric
@attribute att57 numeric
@attribute att58 numeric
@attribute att59 numeric
@attribute att60 numeric
@attribute att61 numeric
@attribute att62 numeric
@attribute att63 numeric
@attribute att64 numeric
@attribute att65 numeric
@attribute att66 numeric
@attribute att67 numeric
@attribute att68 numeric
@attribute att69 numeric
@attribute att70 numeric
@attribute att71 numeric
@attribute att72 numeric
@attribute att73 numeric
@attribute att74 numeric
@attribute att75 numeric
@attribute att76 numeric
@attribute att77 numeric
@attribute att78 numeric
@attribute att79 numeric
@attribute att80 numeric
@attribute att81 numeric
@attribute att82 numeric
@attribute att83 numeric
@attribute att84 numeric
@attribute att85 numeric
@attribute att86 numeric
@attribute att87 numeric
@attribute att88 numeric
@attribute att89 numeric
@attribute att90 numeric
@attribute att91 numeric
@attribute att92 numeric
@attribute att93 numeric
@attribute att94 numeric
@attribute att95 numeric
@attribute att96 numeric
@attribute att97 numeric
@attribute att98 numeric
@attribute att99 numeric
@attribute att100 numeric
@attribute att101 numeric
@attribute att102 numeric
@attribute att103 numeric
@attribute att104 numeric
@attribute att105 numeric
@attribute att106 numeric
@attribute att107 numeric
@attribute att108 numeric
@attribute att109 numeric
@attribute att110 numeric
@attribute att111 numeric
@attribute att112 numeric
@attribute att113 numeric
@attribute att114 numeric
@attribute att115 numeric
@attribute att116 numeric
@attribute att117 numeric
@attribute att118 numeric
@attribute att119 numeric
@attribute att120 numeric
@attribute att121 numeric
@attribute att122 numeric
@attribute att123 numeric
@attribute att124 numeric
@attribute att125 numeric
@attribute att126 numeric
@attribute att127 numeric
@attribute att128 numeric
@attribute att129 numeric
@attribute att130 numeric
@attribute att131 numeric
@attribute att132 numeric
@attribute att133 numeric
@attribute att134 numeric
@attribute att135 numeric
@attribute att136 numeric
@attribute att137 numeric
@attribute att138 numeric
@attribute att139 numeric
@attribute att140 numeric
@attribute att141 numeric
@attribute att142 numeric
@attribute att143 numeric
@attribute att144 numeric
@attribute att145 numeric
@attribute att146 numeric
@attribute att147 numeric
@attribute att148 numeric
@attribute att149 numeric
@attribute att150 numeric
@attribute att151 numeric
@attribute att152 numeric
@attribute att153 numeric
@attribute att154 numeric
@attribute att155 numeric
@attribute att156 numeric
@attribute att157 numeric
@attribute att158 numeric
@attribute att159 numeric
@attribute att160 numeric
@attribute att161 numeric
@attribute att162 numeric
@attribute att163 numeric
@attribute att164 numeric
@attribute att165 numeric
@attribute att166 numeric
@attribute att167 numeric
@attribute att168 numeric
@attribute att169 numeric
@attribute att170 numeric
@attribute att171 numeric
@attribute att172 numeric
@attribute att173 numeric
@attribute att174 numeric
@attribute att175 numeric
@attribute att176 numeric
@attribute att177 numeric
@attribute att178 numeric
@attribute att179 numeric
@attribute att180 numeric
@attribute att181 numeric
@attribute att182 numeric
@attribute att183 numeric
@attribute att184 numeric
@attribute att185 numeric
@attribute att186 numeric
@attribute att187 numeric
@attribute att188 numeric
@attribute att189 numeric
@attribute att190 numeric
@attribute att191 numeric
@attribute att192 numeric
@attribute att193 numeric
@attribute att194 numeric
@attribute att195 numeric
@attribute att196 numeric
@attribute att197 numeric
@attribute att198 numeric
@attribute att199 numeric
@attribute att200 numeric
@attribute target {1}

@data
0.000000,0.000001,0.000003,0.000007,0.000015,0.000028,0.000049,0.000083,0.000134,0.000210,0.000320,0.000476,0.000692,0.000988,0.001385,0.001911,0.002597,0.003480,0.004604,0.006018,0.007776,0.009940,0.012578,0.015764,0.019577,0.024100,0.029422,0.035634,0.042829,0.051100,0.060539,0.071236,0.083275,0.096734,0.111682,0.128179,0.146271,0.165991,0.187354,0.210360,0.234990,0.261203,0.288940,0.318121,0.348645,0.380390,0.413213,0.446955,0.481437,0.516466,0.551834,0.587323,0.622704,0.657744,0.692204,0.725847,0.758437,0.789743,0.819542,0.847623,0.873788,0.897854,0.919656,0.939049,0.955909,0.970134,0.981645,0.990387,0.996329,0.999462,0.999802,0.997388,0.992278,0.984551,0.974306,0.961657,0.946735,0.929682,0.910652,0.889810,0.867326,0.843375,0.818136,0.791789,0.764513,0.736485,0.707877,0.678857,0.649586,0.620216,0.590893,0.561752,0.532917,0.504504,0.476616,0.449347,0.422779,0.396982,0.372019,0.347940,0.324785,0.302586,0.281366,0.261139,0.241913,0.223685,0.206451,0.190197,0.174906,0.160557,0.147124,0.134578,0.122887,0.112017,0.101935,0.092602,0.083982,0.076037,0.068730,0.062023,0.055880,0.050263,0.045139,0.040472,0.036231,0.032383,0.028899,0.025750,0.022909,0.020351,0.018051,0.015986,0.014137,0.012484,0.011007,0.009691,0.008521,0.007480,0.006558,0.005741,0.005019,0.004381,0.003819,0.003325,0.002891,0.002510,0.002176,0.001884,0.001629,0.001407,0.001213,0.001045,0.000899,0.000772,0.000663,0.000568,0.000486,0.000415,0.000354,0.000302,0.000257,0.000219,0.000186,0.000158,0.000134,0.000113,0.000096,0.000081,0.000068,0.000057,0.000048,0.000041,0.000034,0.000029,0.000024,0.000020,0.000017,0.000014,0.000012,0.000010,0.000008,0.000007,0.000006,0.000005,0.000004,0.000003,0.000003,0.000002,0.000002,0.000001,0.000001,0.000001,0.000001,0.000001,0.000001,0.000000,0.000000,0.000000,0.000000,0.000000,1
0.000000,0.000000,0.000000,0.000000,0.000000,0.000000,0.000000,0.000000,0.000000,0.000000,0.000000,0.000000,0.000000,0.000001,0.000001,0.000001,0.000001,0.000001,0.000001,0.000001,0.000001,0.000002,0.000002,0.000002,0.000002,0.000003,0.000003,0.000004,0.000004,0.000005,0.000006,0.000007,0.000008,0.000010,0.000011,0.000013,0.000016,0.000019,0.000022,0.000026,0.000031,0.000037,0.000044,0.000053,0.000062,0.000074,0.000088,0.000105,0.000125,0.000149,0.000177,0.000211,0.000251,0.000299,0.000356,0.000424,0.000504,0.000599,0.000712,0.000845,0.001003,0.001190,0.001410,0.001670,0.001975,0.002334,0.002756,0.003251,0.003830,0.004507,0.005297,0.006217,0.007286,0.008528,0.009966,0.011628,0.013545,0.015753,0.018288,0.021193,0.024514,0.028300,0.032608,0.037495,0.043024,0.049263,0.056282,0.064155,0.072961,0.082778,0.093687,0.105771,0.119109,0.133781,0.149860,0.167416,0.186512,0.207198,0.229516,0.253492,0.279135,0.306435,0.335362,0.365862,0.397854,0.431231,0.465857,0.501564,0.538157,0.575409,0.613063,0.650836,0.688418,0.725476,0.761661,0.796608,0.829942,0.861288,0.890273,0.916535,0.939728,0.959533,0.975661,0.987863,0.995931,0.999711,0.999099,0.994052,0.984585,0.970773,0.952751,0.930714,0.904909,0.875635,0.843232,0.808082,0.770592,0.731192,0.690326,0.648441,0.605977,0.563366,0.521014,0.479305,0.438585,0.399166,0.361317,0.325265,0.291189,0.259228,0.229474,0.201980,0.176760,0.153793,0.133029,0.114391,0.097780,0.083079,0.070163,0.058893,0.049129,0.040731,0.033557,0.027472,0.022348,0.018064,0.014506,0.011574,0.009174,0.007223,0.005650,0.004389,0.003387,0.002596,0.001976,0.001494,0.001121,0.000836,0.000618,0.000455,0.000332,0.000240,0.000173,0.000123,0.000087,0.000061,0.000043,0.000030,0.000020,0.000014,0.000009,0.000006,0.000004,0.000003,0.000002,0.000001,0.000001,0.000000,0.000000,0.000000,1
