@Relation toy_damped

@attribute att1 numeric
@attribute att2 numeric
@attribute att3 numeric
@attribute att4 numeric
@attribute att5 numeric
@attribute att6 numeric
@attribute att7 numeric
@attribute att8 numeric
@attribute att9 numeric
@attribute att10 numeric
@attribute att11 numeric
@attribute att12 numeric
@attribute att13 numeric
@attribute att14 numeric
@attribute att15 numeric
@attribute att16 numeric
@attribute att17 numeric
@attribute att18 numeric
@attribute att19 numeric
@attribute att20 numeric
@attribute att21 numeric
@attribute att22 numeric
@attribute att23 numeric
@attribute att24 numeric
@attribute att25 numeric
@attribute att26 numeric
@attribute att27 numeric
@attribute att28 numeric
@attribute att29 numeric
@attribute att30 numeric
@attribute att31 numeric
@attribute att32 numeric
@attribute att33 numeric
@attribute att34 numeric
@attribute att35 numeric
@attribute att36 numeric
@attribute att37 numeric
@attribute att38 numeric
@attribute att39 numeric
@attribute att40 numeric
@attribute att41 numeric
@attribute att42 numeric
@attribute att43 numeric
@attribute att44 numeric
@attribute att45 numeric
@attribute att46 numeric
@attribute att47 numeric
@attribute att48 numeric
@attribute att49 numeric
@attribute att50 numeric
@attribute att51 numeric
@attribute att52 numeric
@attribute att53 numeric
@attribute att54 numeric
@attribute att55 numeric
@attribute att56 numeric
@attribute att57 numeric
@attribute att58 numeric
@attribute att59 numeric
@attribute att60 numeric
@attribute att61 numeric
@attribute att62 numeric
@attribute att63 numeric
@attribute att64 numeric
@attribute att65 numeric
@attribute att66 numeric
@attribute att67 numeric
@attribute att68 numeric
@attribute att69 numeric
@attribute att70 numeric
@attribute att71 numeric
@attribute att72 numeric
@attribute att73 numeric
@attribute att74 numeric
@attribute att75 numeric
@attribute att76 numeric
@attribute att77 numeric
@attribute att78 numeric
@attribute att79 numeric
@attribute att80 numeric
@attribute att81 numeric
@attribute att82 numeric
@attribute att83 numeric
@attribute att84 numeric
@attribute att85 numeric
@attribute att86 numeric
@attribute att87 numeric
@attribute att88 numeric
@attribute att89 numeric
@attribute att90 numeric
@attribute att91 numeric
@attribute att92 numeric
@attribute att93 numeric
@attribute att94 numeric
@attribute att95 numeric
@attribute att96 numeric
@attribute att97 numeric
@attribute att98 numeric
@attribute att99 numeric
@attribute att100 numeric
@attribute att101 numeric
@attribute att102 numeric
@attribute att103 numeric
@attribute att104 numeric
@attribute att105 numeric
@attribute att106 numeric
@attribute att107 numeric
@attribute att108 numeric
@attribute att109 numeric
@attribute att110 numeric
@attribute att111 numeric
@attribute att112 numeric
@attribute att113 numeric
@attribute att114 numeric
@attribute att115 numeric
@attribute att116 numeric
@attribute att117 numeric
@attribute att118 numeric
@attribute att119 numeric
@attribute att120 numeric
@attribute att121 numeric
@attribute att122 numeric
@attribute att123 numeric
@attribute att124 numeric
@attribute att125 numeric
@attribute att126 numeric
@attribute att127 numeric
@attribute att128 numeric
@attribute att129 numeric
@attribute att130 numeric
@attribute att131 numeric
@attribute att132 numeric
@attribute att133 numeric
@attribute att134 numeric
@attribute att135 numeric
@attribute att136 numeric
@attribute att137 numeric
@attribute att138 numeric
@attribute att139 numeric
@attribute att140 numeric
@attribute att141 numeric
@attribute att142 numeric
@attribute att143 numeric
@attribute att144 numeric
@attribute att145 numeric
@attribute att146 numeric
@attribute att147 numeric
@attribute att148 numeric
@attribute att149 numeric
@attribute att150 numeric
@attribute att151 numeric
@attribute att152 numeric
@attribute att153 numeric
@attribute att154 numeric
@attribute att155 numeric
@attribute att156 numeric
@attribute att157 numeric
@attribute att158 numeric
@attribute att159 numeric
@attribute att160 numeric
@attribute att161 numeric
@attribute att162 numeric
@attribute att163 numeric
@attribute att164 numeric
@attribute att165 numeric
@attribute att166 numeric
@attribute att167 numeric
@attribute att168 numeric
@attribute att169 numeric
@attribute att170 numeric
@attribute att171 numeric
@attribute att172 numeric
@attribute att173 numeric
@attribute att174 numeric
@attribute att175 numeric
@attribute att176 numeric
@attribute att177 numeric
@attribute att178 numeric
@attribute att179 numeric
@attribute att180 numeric
@attribute att181 numeric
@attribute att182 numeric
@attribute att183 numeric
@attribute att184 numeric
@attribute att185 numeric
@attribute att186 numeric
@attribute att187 numeric
@attribute att188 numeric
@attribute att189 numeric
@attribute att190 numeric
@attribute att191 numeric
@attribute att192 numeric
@attribute att193 numeric
@attribute att194 numeric
@attribute att195 numeric
@attribute att196 numeric
@attribute att197 numeric
@attribute att198 numeric
@attribute att199 numeric
@attribute att200 numeric
@attribute target {1}

@data
0.003047,-0.010400,0.007505,0.009406,-0.019510,-0.013022,0.001278,-0.003162,-0.000168,-0.008530,0.008794,0.007778,0.000660,0.011272,0.004675,-0.008593,0.003688,-0.009589,0.008785,-0.000499,-0.001849,-0.006809,0.012225,-0.001545,-0.004283,-0.003521,0.005323,0.003654,0.004127,0.004308,0.021416,-0.004064,-0.005122,-0.008138,0.006160,0.011290,-0.001139,-0.008402,-0.008245,0.006506,0.007433,0.005432,-0.006655,0.002322,0.001167,0.002187,0.008714,0.002236,0.006789,0.000676,0.002891,0.006313,-0.014572,-0.003197,-0.004704,-0.006389,-0.002751,0.014949,-0.008658,0.009683,-0.016829,-0.003349,0.001628,0.005862,0.007112,0.007933,-0.003487,-0.004624,0.008580,-0.001913,-0.012757,-0.011333,-0.009195,0.004972,0.001424,0.006905,0.151696,0.386780,0.577686,0.700660,0.780121,0.778351,0.731320,0.629083,0.478003,0.324850,0.133574,-0.039621,-0.195012,-0.325605,-0.415221,-0.471432,-0.479269,-0.439543,-0.384882,-0.286254,-0.173795,-0.055313,0.067477,0.147871,0.224403,0.286018,0.286394,0.287481,0.237531,0.193320,0.122356,0.059576,0.003542,-0.083235,-0.111511,-0.149129,-0.177363,-0.190055,-0.164608,-0.148259,-0.109218,-0.074265,-0.019209,0.000630,0.027304,0.068004,0.089831,0.114688,0.114916,0.108128,0.110682,0.070423,0.058397,0.035731,0.020456,-0.009614,-0.008171,-0.033054,-0.058896,-0.064407,-0.057774,-0.055860,-0.044520,-0.032862,-0.053070,-0.060496,-0.063965,-0.031135,-0.032665,-0.019349,-0.012238,0.001030,0.020928,0.018804,0.021656,0.017899,0.015522,0.030449,0.036901,0.056401,0.040547,0.048924,0.033378,0.025311,0.025901,0.026376,0.052749,0.020913,0.035061,0.015135,0.030949,0.022969,0.015087,0.013850,0.005402,0.014204,0.003097,-0.006589,-0.008973,0.003790,0.016231,0.000530,-0.003655,-0.000903,0.008106,-0.003858,-0.011170,0.003075,-0.004552,0.005737,-0.008504,-0.023239,-0.025281,0.004353,0.004567,-0.014940,-0.017418,0.000616,-0.025455,-0.023697,-0.008663,-0.019374,-0.015800,-0.017695,1
0.003376,0.014075,0.000906,0.006439,-0.020502,-0.000487,-0.008432,-0.012188,-0.008782,-0.003341,0.009159,-0.013264,0.000306,-0.004842,-0.003277,0.010028,0.005381,0.013374,-0.001545,-0.006959,-0.002239,0.002425,0.001766,-0.010844,0.000905,0.002282,0.025175,0.018768,-0.008532,-0.002874,-0.014634,-0.005907,0.003156,0.012059,-0.007291,-0.006541,-0.021473,-0.001627,-0.010624,-0.005294,-0.008769,-0.000943,-0.017577,-0.014670,0.021292,-0.012874,-0.010968,0.018369,0.029051,-0.011716,-0.003682,0.003416,0.017287,-0.009869,-0.002453,0.007773,0.004348,-0.003762,-0.001338,-0.013749,-0.002382,-0.002664,0.002322,-0.005553,0.004715,0.010127,0.001554,0.003518,0.000532,0.000001,-0.007216,0.003165,-0.000973,0.020932,0.236909,0.425078,0.576648,0.691377,0.782879,0.790601,0.759903,0.659619,0.570595,0.422049,0.245600,0.085931,-0.066517,-0.211678,-0.332660,-0.416325,-0.467566,-0.476469,-0.441137,-0.428444,-0.327286,-0.228048,-0.122780,-0.024746,0.059018,0.163771,0.242913,0.253459,0.297288,0.282449,0.261629,0.211172,0.165235,0.120862,0.050446,0.000941,-0.059230,-0.111592,-0.131636,-0.164724,-0.167691,-0.173417,-0.153462,-0.136113,-0.088077,-0.075033,-0.019707,0.004948,0.049639,0.071653,0.102655,0.105574,0.089755,0.105689,0.089803,0.086642,0.093390,0.068352,0.037031,0.015316,0.007541,-0.022064,-0.031953,-0.035224,-0.037345,-0.050662,-0.084797,-0.061359,-0.063777,-0.058293,-0.042353,-0.073714,-0.052384,-0.033116,-0.046868,-0.008080,-0.010958,0.001794,-0.004815,0.016056,0.024983,0.022294,0.027225,0.031734,0.023788,0.033604,0.035516,0.042189,0.049074,0.028677,0.037724,0.053088,0.029781,0.027639,0.036283,0.040905,0.030623,0.041731,0.034864,0.032519,0.027425,0.042944,0.015417,-0.004731,0.029229,0.006547,0.010204,0.020290,-0.010687,-0.008965,-0.014171,-0.007734,0.003042,0.002399,-0.001499,-0.019742,-0.030002,-0.007583,-0.014012,-0.005812,-0.004445,-0.011091,-0.005834,-0.012060,-0.009926,-0.023107,1
-0.001796,0.001968,0.008205,-0.003937,0.005212,-0.002658,-0.001175,0.008295,-0.019931,-0.012965,-0.014822,-0.023336,-0.006783,0.007494,-0.002849,0.001978,0.010892,0.013277,-0.000691,0.013536,0.000921,-0.008374,-0.005944,-0.014805,-0.008881,-0.003580,0.008036,0.017208,-0.013822,0.003928,-0.010405,0.004747,-0.001311,-0.018309,0.009283,-0.006050,-0.005339,-0.010698,-0.006543,0.004279,-0.001892,0.003287,0.003619,0.013207,-0.003428,-0.014769,0.010672,-0.003315,0.011146,0.003834,-0.001311,0.003488,0.019510,0.020770,0.000694,0.001602,0.010762,-0.008457,0.003331,-0.000259,0.003139,-0.008334,-0.015896,-0.020730,-0.011174,-0.004587,-0.002932,0.019372,0.011060,-0.009621,0.003477,0.159976,0.350009,0.516338,0.648570,0.728367,0.790527,0.774766,0.752306,0.707686,0.582282,0.468554,0.313143,0.168460,0.013571,-0.126809,-0.255579,-0.343606,-0.429620,-0.458150,-0.467479,-0.459173,-0.424015,-0.352973,-0.280309,-0.176905,-0.109178,-0.000475,0.069506,0.149064,0.236684,0.273053,0.278876,0.274084,0.244878,0.239166,0.226585,0.155746,0.089821,0.042830,-0.032439,-0.069545,-0.107605,-0.142011,-0.155273,-0.170914,-0.168334,-0.172930,-0.139819,-0.108661,-0.106079,-0.073894,-0.019399,-0.003247,0.041780,0.048818,0.088808,0.091510,0.103365,0.121681,0.102600,0.092395,0.088944,0.086346,0.052121,0.058478,0.030188,0.030397,-0.021168,-0.020178,-0.042770,-0.045936,-0.044922,-0.056750,-0.062855,-0.065132,-0.062692,-0.074131,-0.054635,-0.051301,-0.049110,-0.041482,-0.037467,-0.012988,-0.026856,-0.021631,-0.018767,-0.014467,-0.009862,-0.000034,0.013890,0.023104,0.024823,0.020578,0.040528,0.041592,0.034675,0.031244,0.044223,0.041086,0.024736,0.038135,0.040662,0.027945,0.037454,0.019376,0.045447,0.042553,0.025398,0.029298,-0.000778,0.009359,0.015552,0.005319,0.020738,0.031138,-0.002999,-0.001964,0.006461,0.017975,-0.012535,0.000078,0.013778,-0.022891,-0.021035,-0.014220,-0.016856,-0.005094,-0.012274,-0.033810,1
0.005154,-0.005775,0.012744,-0.006276,-0.006366,0.005411,0.007629,0.004481,-0.016856,0.005380,-0.010343,0.002353,-0.014237,0.004463,-0.008066,-0.012826,0.007138,0.002416,-0.006140,0.014512,-0.004407,0.000321,0.002689,-0.006197,0.004711,-0.005335,-0.004116,0.013626,-0.010406,-0.024128,0.016109,0.025493,-0.004053,-0.019368,-0.003105,-0.002862,-0.001899,-0.011134,0.005796,0.005245,-0.014944,0.006992,0.020527,0.001720,-0.003373,-0.001420,0.006153,-0.017307,0.001644,-0.003905,0.018478,-0.001742,0.016679,-0.011037,0.005873,0.003194,-0.008690,0.001774,0.012125,-0.003238,-0.016920,-0.000176,-0.009024,-0.003423,-0.000816,-0.017057,-0.016157,0.035925,0.208636,0.353657,0.529660,0.639490,0.713599,0.758446,0.797042,0.776144,0.749411,0.655017,0.556630,0.435013,0.316660,0.180650,0.053162,-0.092004,-0.206822,-0.306519,-0.372976,-0.422388,-0.474411,-0.482334,-0.460042,-0.429654,-0.363605,-0.327203,-0.234348,-0.149595,-0.079432,0.016654,0.092797,0.165485,0.231532,0.256487,0.271898,0.289565,0.293913,0.253678,0.223008,0.197383,0.142882,0.101213,0.043271,0.000641,-0.062718,-0.092812,-0.128005,-0.163158,-0.183107,-0.168385,-0.178158,-0.176605,-0.152386,-0.119690,-0.129160,-0.093932,-0.059424,-0.006746,0.009175,0.039566,0.043026,0.062117,0.092596,0.099201,0.110266,0.104860,0.107557,0.100879,0.098571,0.087882,0.050737,0.030280,0.047853,0.034599,-0.002307,-0.024804,-0.018241,-0.021584,-0.022994,-0.044157,-0.059578,-0.069505,-0.063378,-0.067687,-0.074446,-0.041953,-0.041446,-0.043685,-0.059082,-0.035420,-0.031125,-0.026280,-0.011193,-0.010273,-0.002255,0.003473,0.006954,-0.008251,0.015985,0.014622,0.011853,0.045342,0.049080,0.048039,0.039055,0.051479,0.039000,0.041281,0.028190,0.042503,0.038120,0.023088,0.033858,0.031528,0.047996,0.036438,0.024906,0.024434,0.019438,0.013944,0.002088,0.008333,-0.000666,-0.008711,0.005972,0.001933,-0.022573,-0.008527,0.000210,-0.001439,-0.003881,-0.015671,1
-0.008450,-0.010837,0.003446,0.003793,0.012873,0.011000,-0.001322,-0.012442,-0.003191,0.002172,-0.002021,-0.005779,0.002529,-0.005040,-0.006281,0.003115,-0.004020,0.002441,0.002732,-0.011394,-0.004812,0.014378,-0.011621,-0.021167,-0.018618,0.000291,0.000309,-0.001176,0.012142,-0.026728,0.003959,0.015614,-0.011278,-0.003798,-0.007529,-0.008943,-0.003263,0.014275,0.018374,-0.003359,0.019051,0.000356,0.017537,-0.000933,0.001311,0.003655,0.031789,0.008513,-0.007073,0.009690,-0.003618,-0.004898,0.009086,0.000311,0.002786,0.000140,0.003366,0.004250,-0.019370,0.006666,-0.009820,-0.014423,-0.000584,0.028567,0.187366,0.355243,0.468021,0.590257,0.677006,0.744687,0.783041,0.778024,0.776807,0.726981,0.642043,0.556986,0.476778,0.363863,0.247420,0.128207,0.012783,-0.091836,-0.214422,-0.303981,-0.376508,-0.418465,-0.445992,-0.480746,-0.500679,-0.474198,-0.430904,-0.379668,-0.318399,-0.245764,-0.175785,-0.086486,-0.028871,0.040491,0.118962,0.155578,0.221607,0.254335,0.275570,0.304618,0.282462,0.298231,0.254434,0.214524,0.191809,0.139188,0.098181,0.064198,0.020886,-0.033573,-0.056501,-0.088962,-0.114544,-0.145543,-0.152332,-0.193021,-0.178933,-0.179668,-0.159357,-0.150888,-0.127410,-0.084410,-0.080309,-0.048735,-0.029282,-0.000989,0.022044,0.048047,0.074103,0.094707,0.093733,0.105411,0.093341,0.105851,0.114752,0.109641,0.096086,0.093571,0.078526,0.073150,0.050631,0.030267,0.023177,-0.023207,-0.003166,-0.055654,-0.047417,-0.035320,-0.043220,-0.066185,-0.066609,-0.049072,-0.069306,-0.042196,-0.063377,-0.056708,-0.040894,-0.051027,-0.056804,-0.041660,-0.034210,-0.040469,-0.022185,-0.019841,0.003906,0.001839,0.005132,0.012907,0.021671,0.030477,0.018530,0.021644,0.045936,0.032885,0.024254,0.043588,0.043849,0.023350,0.039811,0.043198,0.037432,0.037433,0.014134,0.028251,0.018442,0.012993,0.022766,0.025040,0.024381,0.015833,-0.002056,-0.000920,-0.000069,-0.009579,-0.012267,-0.007823,1
-0.000593,-0.007293,-0.004145,0.006339,0.000030,0.003402,0.006701,-0.003748,0.007562,0.003788,-0.012348,0.014423,-0.005007,-0.016551,-0.010450,-0.010210,0.000522,-0.002739,-0.003368,0.006197,0.003399,0.003160,0.004098,0.006161,-0.021080,-0.003644,-0.021802,0.000361,-0.000046,0.010455,0.011876,0.002028,-0.005004,0.004852,-0.005279,-0.000014,0.009861,-0.005578,0.008057,0.006774,-0.009548,0.009739,0.006986,0.001019,-0.007623,-0.008592,-0.005377,0.005426,-0.009556,0.004375,-0.012418,-0.002041,0.001096,0.024451,-0.013773,0.014720,0.001498,0.004112,0.001183,0.127660,0.269621,0.419439,0.516982,0.630096,0.688416,0.748113,0.769169,0.793106,0.789945,0.741264,0.688051,0.610562,0.537429,0.431018,0.337314,0.243626,0.148019,0.057988,-0.076444,-0.149629,-0.245587,-0.322292,-0.376406,-0.426182,-0.457248,-0.479281,-0.491563,-0.481590,-0.435398,-0.409018,-0.366682,-0.307069,-0.239559,-0.182019,-0.124711,-0.040237,0.027015,0.076211,0.135811,0.186748,0.226271,0.253360,0.276564,0.290048,0.279128,0.293671,0.261547,0.248256,0.243937,0.208686,0.180401,0.125145,0.077013,0.046367,0.010759,-0.026695,-0.050595,-0.096386,-0.115811,-0.150978,-0.153201,-0.168958,-0.182426,-0.178014,-0.173287,-0.165397,-0.132192,-0.134645,-0.117044,-0.114399,-0.079764,-0.050125,-0.030978,0.012483,0.018632,0.053095,0.058634,0.073720,0.085048,0.095644,0.119459,0.082731,0.086634,0.099156,0.100099,0.099911,0.088799,0.069623,0.071756,0.059043,0.037205,0.031426,0.011119,-0.010149,-0.009713,-0.026719,-0.037710,-0.031486,-0.077684,-0.072699,-0.074087,-0.067895,-0.067248,-0.078685,-0.070953,-0.065914,-0.027807,-0.028485,-0.043971,-0.036263,-0.036509,-0.036297,-0.010577,-0.011747,0.004694,-0.003623,0.010995,0.025631,0.032544,0.036940,0.022549,0.046373,0.030982,0.045578,0.038553,0.023505,0.031985,0.036029,0.035173,0.023838,0.036411,0.026759,0.009557,0.015018,0.022299,0.018156,-0.017908,-0.018764,0.001854,-0.026643,1
-0.013225,-0.004862,0.004202,-0.001024,-0.006506,-0.006742,-0.007123,-0.008795,0.022816,0.002975,0.008868,-0.004891,-0.001860,-0.007136,-0.026517,-0.013780,-0.018106,-0.022498,-0.011954,0.013250,-0.000444,0.012906,0.004110,0.007826,-0.009009,0.005240,0.007287,-0.005766,0.005595,0.005662,-0.005496,-0.011228,-0.011841,0.000865,0.003270,-0.007925,0.000266,0.005705,0.006182,0.015519,0.012770,-0.010013,0.016836,-0.005310,0.010449,0.000680,-0.004121,-0.018077,-0.001716,-0.015594,0.009673,0.015168,-0.007969,0.003020,0.123411,0.266610,0.409046,0.513161,0.625222,0.678053,0.747963,0.773873,0.795904,0.779371,0.761234,0.721940,0.661365,0.610263,0.533542,0.448160,0.366929,0.271892,0.158294,0.071422,-0.029843,-0.109752,-0.195788,-0.245402,-0.320620,-0.379032,-0.406817,-0.471297,-0.489396,-0.469920,-0.475221,-0.461163,-0.455425,-0.412453,-0.354859,-0.323087,-0.281051,-0.234809,-0.179566,-0.140918,-0.061092,-0.000468,0.027764,0.086052,0.126062,0.168027,0.212717,0.219826,0.268960,0.285982,0.284999,0.265309,0.276527,0.289312,0.234266,0.238756,0.206364,0.198581,0.153330,0.131606,0.099423,0.077824,0.023369,-0.003943,-0.054022,-0.056494,-0.102450,-0.123661,-0.137874,-0.168990,-0.162710,-0.162795,-0.172855,-0.190924,-0.171642,-0.154732,-0.169390,-0.146920,-0.110516,-0.097719,-0.075979,-0.040248,-0.032494,-0.009049,0.032423,0.023048,0.035580,0.064339,0.078766,0.080986,0.085182,0.125116,0.109012,0.099386,0.114161,0.099684,0.091711,0.091277,0.062399,0.067092,0.069883,0.041913,0.019671,0.004598,-0.007794,-0.018855,-0.031687,-0.029049,-0.064343,-0.045519,-0.063276,-0.059201,-0.075871,-0.051123,-0.050028,-0.049359,-0.069138,-0.039503,-0.036542,-0.048679,-0.024399,-0.011793,-0.001168,0.003502,0.012624,0.031753,0.035730,0.000259,0.030115,0.034833,0.020945,0.040192,0.051358,0.026529,0.038285,0.022412,0.020765,0.037591,0.012308,0.017026,-0.011719,0.020288,0.002595,-0.009985,-0.006647,-0.030159,1
0.011825,-0.003240,-0.002041,-0.004917,-0.005807,0.006947,0.002559,0.006517,-0.000088,0.005132,-0.004188,0.022297,-0.015679,0.012609,0.013679,-0.008522,0.022293,0.009955,0.009711,0.000280,-0.002172,-0.002094,0.003905,0.014012,0.001813,-0.009114,0.008244,0.009212,0.006547,0.007455,-0.002709,-0.009290,-0.008682,-0.016355,0.002369,-0.000834,-0.004400,-0.029556,-0.012473,0.011208,-0.006646,0.003606,-0.013907,0.014387,-0.001440,0.002900,0.023258,0.015164,0.003579,0.155044,0.299296,0.433800,0.536329,0.623209,0.711877,0.746090,0.800462,0.789494,0.799513,0.761653,0.729131,0.660530,0.596351,0.537500,0.463791,0.370361,0.270197,0.181505,0.093593,0.005269,-0.057114,-0.123090,-0.204512,-0.290051,-0.324766,-0.371742,-0.387929,-0.453599,-0.464437,-0.456480,-0.473822,-0.469629,-0.463692,-0.444312,-0.416434,-0.403412,-0.352870,-0.337688,-0.279715,-0.237749,-0.200487,-0.148328,-0.107803,-0.066151,-0.013847,0.022158,0.077773,0.101740,0.155966,0.169172,0.203683,0.227422,0.267012,0.272795,0.278678,0.292645,0.269058,0.287886,0.302352,0.273843,0.259680,0.247603,0.231176,0.179695,0.158050,0.150360,0.113119,0.104484,0.058858,0.013326,-0.008874,-0.051635,-0.053075,-0.077462,-0.102546,-0.107782,-0.124109,-0.152334,-0.183335,-0.163861,-0.169140,-0.172858,-0.164042,-0.180166,-0.140018,-0.158441,-0.127531,-0.135842,-0.110358,-0.066532,-0.063937,-0.032011,-0.017038,0.000164,0.034639,0.037156,0.038574,0.063190,0.089253,0.097649,0.085232,0.098018,0.100919,0.101717,0.087524,0.088376,0.078470,0.082601,0.070503,0.047280,0.030373,0.020922,-0.003296,-0.020701,-0.031781,-0.040552,-0.056025,-0.051059,-0.051588,-0.078759,-0.064395,-0.066393,-0.058223,-0.057281,-0.065504,-0.055997,-0.034396,-0.014981,-0.037614,-0.002206,0.015705,0.011091,0.025990,0.020140,0.031291,0.020095,0.015122,0.048693,0.028610,0.031706,0.018963,0.014256,0.021335,0.009932,0.014853,0.009390,0.002049,-0.004391,0.003981,-0.026736,1
-0.000549,0.011327,0.012645,-0.014218,-0.003124,0.013581,0.005081,0.001953,-0.002177,-0.003838,0.002882,-0.002524,-0.000426,0.000786,-0.006781,0.005321,0.029142,-0.017770,0.003240,-0.007602,0.005774,0.000466,0.007619,0.011755,0.001924,0.011321,-0.023443,0.015905,0.003751,0.010778,-0.012199,-0.008308,0.001459,-0.000170,0.002831,0.010845,-0.017652,0.009738,0.000083,-0.002038,-0.014711,0.005030,-0.024141,0.006484,0.141904,0.308115,0.439076,0.564381,0.641679,0.705066,0.753338,0.796078,0.793402,0.770220,0.741004,0.682370,0.644233,0.554998,0.504596,0.417303,0.355388,0.234538,0.158828,0.094028,0.007400,-0.087619,-0.149186,-0.216041,-0.271171,-0.331809,-0.369213,-0.420374,-0.431727,-0.450021,-0.471234,-0.492861,-0.468267,-0.470067,-0.471111,-0.451863,-0.444839,-0.416940,-0.385502,-0.338362,-0.325138,-0.278481,-0.254905,-0.210607,-0.177401,-0.129874,-0.106645,-0.080123,-0.042032,0.001656,0.028415,0.077447,0.099421,0.156664,0.142315,0.186286,0.195183,0.221283,0.244836,0.234746,0.272263,0.298096,0.280959,0.291768,0.300358,0.286701,0.278106,0.254144,0.273796,0.254343,0.231169,0.226262,0.200905,0.181436,0.171203,0.128842,0.128698,0.079422,0.061401,0.061633,0.028105,-0.007399,-0.042305,-0.061713,-0.077888,-0.098819,-0.118751,-0.134599,-0.150429,-0.174026,-0.173231,-0.164376,-0.189564,-0.176992,-0.179382,-0.163104,-0.158217,-0.126947,-0.121583,-0.122550,-0.083731,-0.077849,-0.054643,-0.024108,-0.010649,0.024080,0.027149,0.046821,0.062485,0.076956,0.104361,0.107352,0.122631,0.129379,0.094302,0.100090,0.079507,0.072810,0.061452,0.042683,0.027111,0.020013,-0.006848,-0.001779,-0.033731,-0.009149,-0.052368,-0.055327,-0.074549,-0.047324,-0.053218,-0.058826,-0.070222,-0.047504,-0.051979,-0.016053,-0.011755,-0.007837,-0.022376,0.002184,0.027760,0.040367,0.044917,0.021563,0.042165,0.049016,0.020163,0.032936,0.030684,0.018858,-0.003389,0.004860,-0.002096,-0.006832,-0.016812,-0.020491,1
-0.000397,0.004425,-0.003044,-0.004096,0.000924,-0.019209,0.004770,-0.000006,0.000397,0.009607,-0.019528,-0.019738,0.002738,-0.000071,0.001702,-0.004621,0.006644,0.009326,0.004840,-0.002608,-0.021077,0.007692,0.012217,0.006446,-0.008796,0.006738,0.008605,0.015588,-0.008761,-0.002265,0.007473,0.000574,-0.011173,0.004146,0.005787,0.000880,0.002196,-0.002587,0.014783,0.051065,0.229478,0.390361,0.530219,0.611844,0.692416,0.737291,0.784606,0.775895,0.764490,0.737317,0.670653,0.612736,0.530751,0.456628,0.366358,0.264389,0.179517,0.103633,0.012821,-0.084387,-0.137140,-0.221042,-0.255279,-0.310788,-0.362066,-0.399698,-0.432228,-0.445082,-0.470550,-0.473154,-0.469641,-0.481527,-0.474845,-0.469152,-0.452648,-0.441849,-0.395072,-0.360775,-0.339211,-0.342815,-0.291236,-0.255353,-0.244675,-0.209325,-0.200575,-0.148109,-0.131989,-0.090382,-0.079592,-0.030843,0.000898,0.008880,0.030466,0.044404,0.086386,0.105232,0.116410,0.156165,0.165660,0.176710,0.197985,0.229037,0.237848,0.242689,0.260998,0.252633,0.272590,0.280321,0.279257,0.291910,0.281814,0.295211,0.294529,0.257113,0.293817,0.245405,0.262019,0.269059,0.244596,0.220430,0.209872,0.215242,0.168436,0.180222,0.148376,0.115845,0.099782,0.072470,0.067724,0.042430,-0.006165,-0.016930,-0.044993,-0.046123,-0.094161,-0.084790,-0.119574,-0.147180,-0.156253,-0.168728,-0.181749,-0.173195,-0.188256,-0.196212,-0.173212,-0.179081,-0.156979,-0.143948,-0.126275,-0.077962,-0.075997,-0.051426,-0.048293,-0.013696,0.017725,0.026743,0.065530,0.061336,0.084343,0.091697,0.105753,0.100290,0.102580,0.097663,0.083842,0.084054,0.067021,0.047271,0.026208,0.020464,-0.007441,-0.024522,-0.034866,-0.030889,-0.070215,-0.054774,-0.083632,-0.061366,-0.043453,-0.047185,-0.040951,-0.037184,-0.019213,-0.009722,-0.003171,0.012609,0.026690,0.024183,0.028607,0.025413,0.042821,0.041984,0.034475,0.035844,0.019979,0.015308,0.006603,-0.004804,-0.015853,0.006081,1
-0.004520,-0.006659,0.004340,0.002519,-0.014048,0.011227,-0.000942,-0.011109,0.011888,0.006257,-0.012645,0.017772,0.006588,-0.000102,0.015902,0.001593,-0.000281,-0.006603,0.005819,0.004766,0.000147,-0.007900,0.001299,-0.000698,-0.013335,-0.014718,0.005652,-0.026019,0.002054,-0.004781,0.013082,-0.004935,0.006595,-0.003969,0.001137,0.025976,0.212524,0.400977,0.525514,0.650632,0.735946,0.779704,0.807831,0.768588,0.725495,0.671867,0.614547,0.526804,0.428451,0.317198,0.235781,0.117082,0.046047,-0.026018,-0.132701,-0.203998,-0.279259,-0.347655,-0.381490,-0.423189,-0.454803,-0.442984,-0.469787,-0.474151,-0.480327,-0.472847,-0.450677,-0.445873,-0.422157,-0.408641,-0.387186,-0.373294,-0.353292,-0.309648,-0.279559,-0.265946,-0.226508,-0.199030,-0.195024,-0.157138,-0.119166,-0.095424,-0.087747,-0.052434,-0.022511,-0.004595,0.006146,0.020994,0.037091,0.064937,0.078280,0.097926,0.107521,0.128266,0.134240,0.153734,0.166597,0.161285,0.162158,0.206075,0.203120,0.192850,0.211838,0.235223,0.232786,0.238085,0.264375,0.246575,0.255248,0.270999,0.277886,0.283440,0.291438,0.287461,0.292762,0.286847,0.290746,0.290908,0.290655,0.293778,0.287948,0.277898,0.263060,0.264088,0.253887,0.245297,0.253027,0.211693,0.205490,0.194674,0.166124,0.168188,0.119320,0.103407,0.068213,0.047924,0.028647,0.009138,-0.021457,-0.036825,-0.074156,-0.098894,-0.089014,-0.130253,-0.156749,-0.168660,-0.179749,-0.165703,-0.179386,-0.170953,-0.165156,-0.145436,-0.145644,-0.128952,-0.094099,-0.066264,-0.043433,-0.028743,0.011921,0.022258,0.046877,0.062048,0.100153,0.104795,0.111084,0.119136,0.131507,0.078363,0.076005,0.061730,0.041342,0.019506,0.007281,-0.021230,-0.023346,-0.041176,-0.048494,-0.055923,-0.058479,-0.067559,-0.037998,-0.048823,-0.059031,-0.037809,-0.031655,-0.000588,0.010550,0.017858,0.051040,0.041999,0.046340,0.029360,0.025538,0.030452,0.024633,-0.003922,0.004186,-0.002249,-0.012052,-0.024194,1
-0.005395,-0.001769,0.000908,0.006048,0.010809,-0.002943,-0.004562,0.004377,0.006108,-0.004342,0.007904,0.009796,0.012917,0.017783,-0.008664,0.000139,0.000113,-0.000981,-0.006493,-0.014856,0.000927,-0.007684,0.000860,-0.007940,-0.010997,0.002343,0.001509,0.005793,0.021859,0.002773,0.004851,-0.010776,0.053328,0.296216,0.452556,0.594343,0.706257,0.766341,0.779549,0.771264,0.741607,0.651080,0.555728,0.476137,0.360702,0.235635,0.113382,0.013996,-0.079173,-0.157265,-0.258413,-0.316064,-0.363424,-0.436905,-0.434149,-0.476962,-0.472679,-0.475673,-0.461836,-0.455244,-0.467224,-0.429663,-0.395422,-0.371239,-0.335268,-0.301849,-0.272877,-0.250328,-0.236276,-0.192719,-0.155325,-0.142879,-0.099443,-0.071837,-0.056253,-0.066212,-0.027854,0.022872,0.016252,0.018263,0.065587,0.067310,0.091053,0.094561,0.107199,0.116174,0.128630,0.152793,0.147411,0.128964,0.155746,0.168712,0.174903,0.163802,0.184576,0.186774,0.207549,0.178452,0.184846,0.190706,0.192626,0.192337,0.177296,0.204268,0.216031,0.211181,0.239313,0.224027,0.240833,0.234671,0.244559,0.243424,0.258745,0.250113,0.259056,0.262310,0.260284,0.271652,0.294233,0.273251,0.283909,0.295648,0.297318,0.288248,0.265751,0.295307,0.267451,0.302648,0.286586,0.290310,0.265040,0.250462,0.258566,0.243527,0.224698,0.214005,0.222163,0.181990,0.161220,0.134331,0.114172,0.069588,0.022062,0.011313,-0.008094,-0.054727,-0.074373,-0.105189,-0.106303,-0.133591,-0.150404,-0.162041,-0.175012,-0.173768,-0.183268,-0.183560,-0.145333,-0.124066,-0.091710,-0.061511,-0.032947,-0.029260,0.006060,0.041435,0.085930,0.095198,0.106258,0.100077,0.097897,0.111287,0.083326,0.077872,0.061050,0.057359,0.015841,-0.026825,-0.017539,-0.046757,-0.052506,-0.062221,-0.067419,-0.055058,-0.071952,-0.051608,-0.026602,-0.024989,-0.020017,0.016768,0.033336,0.030839,0.017470,0.046307,0.021297,0.036511,0.017594,0.006244,0.004018,-0.002693,-0.015685,-0.010173,1
