@Relation toy_ecg

@attribute att1 numeric
@attribute att2 numeric
@attribute att3 numeric
@attribute att4 numeric
@attribute att5 numeric
@attribute att6 numeric
@attribute att7 numeric
@attribute att8 numeric
@attribute att9 numeric
@attribute att10 numeric
@attribute att11 numeric
@attribute att12 numeric
@attribute att13 numeric
@attribute att14 numeric
@attribute att15 numeric
@attribute att16 numeric
@attribute att17 numeric
@attribute att18 numeric
@attribute att19 numeric
@attribute att20 numeric
@attribute att21 numeric
@attribute att22 numeric
@attribute att23 numeric
@attribute att24 numeric
@attribute att25 numeric
@attribute att26 numeric
@attribute att27 numeric
@attribute att28 numeric
@attribute att29 numeric
@attribute att30 numeric
@attribute att31 numeric
@attribute att32 numeric
@attribute att33 numeric
@attribute att34 numeric
@attribute att35 numeric
@attribute att36 numeric
@attribute att37 numeric
@attribute att38 numeric
@attribute att39 numeric
@attribute att40 numeric
@attribute att41 numeric
@attribute att42 numeric
@attribute att43 numeric
@attribute att44 numeric
@attribute att45 numeric
@attribute att46 numeric
@attribute att47 numeric
@attribute att48 numeric
@attribute att49 numeric
@attribute att50 numeric
@attribute att51 numeric
@attribute att52 numeric
@attribute att53 numeric
@attribute att54 numeric
@attribute att55 numeric
@attribute att56 numeric
@attribute att57 numeric
@attribute att58 numeric
@attribute att59 numeric
@attribute att60 numeric
@attribute att61 numeric
@attribute att62 numeric
@attribute att63 numeric
@attribute att64 numeric
@attribute att65 numeric
@attribute att66 numeric
@attribute att67 numeric
@attribute att68 numeric
@attribute att69 numeric
@attribute att70 numeric
@attribute att71 numeric
@attribute att72 numeric
@attribute att73 numeric
@attribute att74 numeric
@attribute att75 numeric
@attribute att76 numeric
@attribute att77 numeric
@attribute att78 numeric
@attribute att79 numeric
@attribute att80 numeric
@attribute att81 numeric
@attribute att82 numeric
@attribute att83 numeric
@attribute att84 numeric
@attribute att85 numeric
@attribute att86 numeric
@attribute att87 numeric
@attribute att88 numeric
@attribute att89 numeric
@attribute att90 numeric
@attribute att91 numeric
@attribute att92 numeric
@attribute att93 numeric
@attribute att94 numeric
@attribute att95 numeric
@attribute att96 numeric
@attribute att97 numeric
@attribute att98 numeric
@attribute att99 numeric
@attribute att100 numeric
@attribute att101 numeric
@attribute att102 numeric
@attribute att103 numeric
@attribute att104 numeric
@attribute att105 numeric
@attribute att106 numeric
@attribute att107 numeric
@attribute att108 numeric
@attribute att109 numeric
@attribute att110 numeric
@attribute att111 numeric
@attribute att112 numeric
@attribute att113 numeric
@attribute att114 numeric
@attribute att115 numeric
@attribute att116 numeric
@attribute att117 numeric
@attribute att118 numeric
@attribute att119 numeric
@attribute att120 numeric
@attribute att121 numeric
@attribute att122 numeric
@attribute att123 numeric
@attribute att124 numeric
@attribute att125 numeric
@attribute att126 numeric
@attribute att127 numeric
@attribute att128 numeric
@attribute att129 numeric
@attribute att130 numeric
@attribute att131 numeric
@attribute att132 numeric
@attribute att133 numeric
@attribute att134 numeric
@attribute att135 numeric
@attribute att136 numeric
@attribute att137 numeric
@attribute att138 numeric
@attribute att139 numeric
@attribute att140 numeric
@attribute att141 numeric
@attribute att142 numeric
@attribute att143 numeric
@attribute att144 numeric
@attribute att145 numeric
@attribute att146 numeric
@attribute att147 numeric
@attribute att148 numeric
@attribute att149 numeric
@attribute att150 numeric
@attribute att151 numeric
@attribute att152 numeric
@attribute att153 numeric
@attribute att154 numeric
@attribute att155 numeric
@attribute att156 numeric
@attribute att157 numeric
@attribute att158 numeric
@attribute att159 numeric
@attribute att160 numeric
@attribute att161 numeric
@attribute att162 numeric
@attribute att163 numeric
@attribute att164 numeric
@attribute att165 numeric
@attribute att166 numeric
@attribute att167 numeric
@attribute att168 numeric
@attribute att169 numeric
@attribute att170 numeric
@attribute att171 numeric
@attribute att172 numeric
@attribute att173 numeric
@attribute att174 numeric
@attribute att175 numeric
@attribute att176 numeric
@attribute att177 numeric
@attribute att178 numeric
@attribute att179 numeric
@attribute att180 numeric
@attribute att181 numeric
@attribute att182 numeric
@attribute att183 numeric
@attribute att184 numeric
@attribute att185 numeric
@attribute att186 numeric
@attribute att187 numeric
@attribute att188 numeric
@attribute att189 numeric
@attribute att190 numeric
@attribute att191 numeric
@attribute att192 numeric
@attribute att193 numeric
@attribute att194 numeric
@attribute att195 numeric
@attribute att196 numeric
@attribute att197 numeric
@attribute att198 numeric
@attribute att199 numeric
@attribute att200 numeric
@attribute target {1}

@data
0.003047,-0.010400,0.007505,0.009406,-0.019510,-0.013022,0.001278,-0.003162,-0.000168,-0.008530,0.008794,0.007778,0.000660,0.011272,0.004675,-0.008593,0.003688,-0.009589,0.008785,-0.000499,-0.001849,-0.006809,0.012225,-0.001545,-0.004283,-0.003521,0.005323,0.003654,0.004127,0.004308,0.021416,-0.004064,-0.005122,-0.008138,0.006160,0.011290,-0.001139,-0.008402,-0.008245,0.006506,0.007433,0.005432,-0.006655,0.002322,0.001167,0.002187,0.008714,0.002236,0.006789,0.000676,0.002891,0.006313,-0.014572,-0.003197,-0.004704,-0.006388,-0.002751,0.014951,-0.008654,0.009694,-0.016802,-0.003287,0.001767,0.006167,0.007758,0.009255,-0.000883,0.000309,0.017529,0.013601,0.012865,0.028873,0.050583,0.088956,0.112629,0.145320,0.157271,0.177934,0.185897,0.167278,0.154673,0.115982,0.089017,0.060837,0.029636,0.029498,0.008707,0.006817,0.007871,0.005749,0.007139,-0.001501,-0.019235,-0.082002,-0.085299,0.305431,0.912669,0.755762,0.103613,-0.243327,-0.256330,-0.103809,-0.024481,0.014444,0.006844,0.023867,0.030064,0.054619,0.090139,0.093429,0.148516,0.182998,0.211844,0.238412,0.283634,0.299899,0.320005,0.319544,0.326244,0.289156,0.255070,0.235789,0.202441,0.180026,0.142864,0.109399,0.095784,0.048833,0.037991,0.022477,0.018335,0.001505,0.016653,0.004610,-0.010247,-0.007284,0.004960,0.009527,0.020679,0.029577,0.004412,-0.009733,-0.021222,0.002736,-0.008094,-0.004132,-0.006108,-0.001400,0.010664,0.001573,-0.001585,-0.010356,-0.016746,-0.004863,-0.000538,0.017679,0.001303,0.009827,-0.004993,-0.011849,-0.009651,-0.007252,0.021285,-0.008214,0.008385,-0.009029,0.009316,0.003850,-0.001566,-0.000408,-0.006548,0.004461,-0.004550,-0.012256,-0.012779,0.001726,0.015791,0.001600,-0.001186,0.002858,0.013060,0.002194,-0.004109,0.011063,0.004288,0.015358,0.001832,-0.012245,-0.013682,0.016509,0.017237,-0.001795,-0.003832,0.014614,-0.011070,-0.008947,0.006433,-0.003946,-0.000051,-0.001634,1
0.003376,0.014075,0.000906,0.006439,-0.020502,-0.000487,-0.008432,-0.012188,-0.008782,-0.003341,0.009159,-0.013264,0.000306,-0.004842,-0.003277,0.010028,0.005381,0.013374,-0.001545,-0.006959,-0.002239,0.002425,0.001766,-0.010844,0.000905,0.002282,0.025175,0.018768,-0.008532,-0.002874,-0.014634,-0.005907,0.003156,0.012059,-0.007291,-0.006541,-0.021473,-0.001627,-0.010624,-0.005294,-0.008769,-0.000943,-0.017577,-0.014670,0.021292,-0.012874,-0.010968,0.018369,0.029051,-0.011716,-0.003682,0.003416,0.017288,-0.009866,-0.002446,0.007787,0.004378,-0.003699,-0.001209,-0.013489,-0.001871,-0.001686,0.004145,-0.002255,0.010492,0.019904,0.017508,0.028562,0.038272,0.054480,0.067957,0.102107,0.122993,0.168483,0.182246,0.181676,0.171723,0.159432,0.164556,0.130986,0.106052,0.057360,0.060964,0.037904,0.008979,0.006550,0.008518,0.003380,-0.001634,-0.000501,-0.002655,-0.005997,-0.038158,-0.130521,0.055553,0.576712,0.994377,0.617810,0.015954,-0.237336,-0.239198,-0.150358,-0.025552,-0.000848,0.012389,0.010368,0.028021,0.058481,0.069607,0.103845,0.125342,0.148667,0.194896,0.215798,0.252325,0.270154,0.297148,0.305389,0.329494,0.305990,0.315079,0.287209,0.276662,0.244168,0.224416,0.182733,0.130112,0.117904,0.082662,0.068433,0.071430,0.048675,0.024233,0.012533,0.016536,-0.000743,0.001231,0.008574,0.015256,0.008575,-0.021258,0.004136,0.001435,0.004604,0.016463,-0.020439,-0.005787,0.005988,-0.015765,0.014792,0.003704,0.008479,-0.005701,0.008143,0.010688,0.002331,0.002345,0.002704,-0.008633,-0.001475,-0.001525,0.003834,0.009998,-0.010585,-0.001250,0.014815,-0.007436,-0.008222,0.002023,0.008444,0.000114,0.013290,0.008568,0.008418,0.005541,0.023277,-0.002052,-0.020035,0.016043,-0.004577,0.001079,0.013096,-0.016023,-0.012516,-0.016013,-0.007941,0.004396,0.005242,0.002763,-0.014128,-0.023101,0.000544,-0.004718,0.004594,0.007020,0.001382,0.007601,0.002292,0.005301,-0.007047,1
-0.001796,0.001968,0.008205,-0.003937,0.005212,-0.002658,-0.001175,0.008295,-0.019931,-0.012965,-0.014822,-0.023336,-0.006783,0.007494,-0.002849,0.001978,0.010892,0.013277,-0.000691,0.013536,0.000921,-0.008374,-0.005944,-0.014805,-0.008881,-0.003580,0.008036,0.017208,-0.013822,0.003928,-0.010405,0.004747,-0.001311,-0.018309,0.009283,-0.006050,-0.005339,-0.010698,-0.006543,0.004279,-0.001892,0.003287,0.003619,0.013207,-0.003428,-0.014768,0.010673,-0.003313,0.011149,0.003840,-0.001299,0.003513,0.019559,0.020865,0.000873,0.001935,0.011369,-0.007375,0.005217,0.002952,0.008464,0.000260,-0.002421,-0.000237,0.019011,0.038402,0.056173,0.097700,0.110960,0.112812,0.147444,0.158114,0.171941,0.181791,0.182903,0.161932,0.157793,0.113038,0.099959,0.101984,0.056989,0.051648,0.024944,0.020416,0.007809,0.002823,-0.005490,0.005407,-0.008025,0.006532,0.005106,-0.035883,-0.102837,-0.041140,0.285739,0.830225,0.935798,0.463901,-0.045093,-0.261347,-0.246431,-0.144978,-0.058577,-0.019794,-0.020083,0.011179,0.048763,0.039432,0.043154,0.070559,0.071104,0.108070,0.139432,0.167207,0.206660,0.232468,0.263924,0.274870,0.310036,0.330253,0.310015,0.309197,0.322672,0.292273,0.287846,0.245109,0.237366,0.196375,0.170108,0.156892,0.113370,0.085843,0.071811,0.064684,0.031075,0.042163,0.021651,0.031646,-0.009080,0.002963,-0.009058,-0.002690,0.006417,0.000971,-0.000611,-0.000264,0.002945,-0.009464,0.007491,0.006912,0.004042,0.005694,0.003050,0.020408,-0.000833,-0.003045,-0.007518,-0.010311,-0.012437,-0.008883,-0.000703,0.003345,0.000513,-0.007654,0.009003,0.007395,-0.001596,-0.006529,0.005484,0.001880,-0.014481,-0.000680,0.002620,-0.008997,0.001898,-0.014548,0.013362,0.012480,-0.002525,0.003635,-0.024099,-0.011563,-0.002938,-0.010721,0.007144,0.019973,-0.011766,-0.008375,0.002354,0.016111,-0.012224,0.002490,0.018213,-0.016518,-0.012811,-0.004236,-0.005206,0.008126,0.002417,-0.017750,1
0.005154,-0.005775,0.012744,-0.006276,-0.006366,0.005411,0.007629,0.004481,-0.016856,0.005380,-0.010343,0.002353,-0.014237,0.004463,-0.008066,-0.012826,0.007138,0.002416,-0.006140,0.014512,-0.004407,0.000321,0.002689,-0.006197,0.004711,-0.005335,-0.004116,0.013626,-0.010406,-0.024128,0.016109,0.025493,-0.004053,-0.019368,-0.003105,-0.002862,-0.001899,-0.011134,0.005796,0.005245,-0.014943,0.006993,0.020529,0.001724,-0.003365,-0.001404,0.006182,-0.017251,0.001745,-0.003723,0.018799,-0.001184,0.017629,-0.009450,0.008470,0.007356,-0.002172,0.011744,0.027003,0.018399,0.013716,0.042007,0.047402,0.069825,0.091364,0.095281,0.116285,0.155718,0.160753,0.150433,0.187827,0.179803,0.160409,0.139145,0.141273,0.114737,0.113049,0.072724,0.054228,0.033705,0.031912,0.021469,0.021825,0.000215,-0.001336,-0.003192,0.008714,0.015345,-0.005042,-0.011407,-0.035736,-0.097416,-0.068046,0.123052,0.589542,0.965699,0.799253,0.306773,-0.085833,-0.253635,-0.252195,-0.175580,-0.083116,-0.016715,0.015296,0.002964,0.009852,0.032212,0.034282,0.055406,0.064040,0.089367,0.093048,0.126934,0.150711,0.167789,0.191860,0.241204,0.255798,0.270967,0.297950,0.322869,0.295805,0.304731,0.305669,0.319205,0.292269,0.277991,0.236820,0.213008,0.203764,0.174978,0.155808,0.125805,0.109704,0.089899,0.079767,0.066006,0.029857,0.013709,0.038123,0.033474,0.006217,-0.006231,0.010216,0.016129,0.022976,0.008799,-0.001093,-0.007051,0.001453,-0.002046,-0.009485,0.020953,0.018176,0.011585,-0.009054,0.008657,0.006469,0.004475,0.012530,0.006377,0.007416,0.006380,0.003415,-0.017831,0.000839,-0.005560,-0.012797,0.016819,0.017291,0.013593,0.002552,0.013506,0.000121,0.002028,-0.010935,0.003970,0.000604,-0.013027,-0.000512,-0.000797,0.017976,0.008942,0.000114,0.002488,0.000442,-0.002029,-0.010824,-0.001511,-0.007461,-0.012503,0.005112,0.003913,-0.017867,-0.001227,0.009957,0.010592,0.010258,0.000389,1
-0.008450,-0.010837,0.003446,0.003793,0.012873,0.011000,-0.001322,-0.012442,-0.003191,0.002172,-0.002021,-0.005779,0.002529,-0.005040,-0.006281,0.003115,-0.004020,0.002441,0.002732,-0.011394,-0.004812,0.014378,-0.011621,-0.021167,-0.018618,0.000291,0.000309,-0.001176,0.012142,-0.026728,0.003959,0.015614,-0.011278,-0.003798,-0.007529,-0.008943,-0.003261,0.014278,0.018380,-0.003348,0.019072,0.000394,0.017607,-0.000809,0.001528,0.004028,0.032417,0.009553,-0.005386,0.012370,0.000553,0.001457,0.018556,0.014108,0.022427,0.027444,0.040409,0.053267,0.043854,0.086107,0.087360,0.101248,0.133296,0.151432,0.157588,0.182785,0.166082,0.174993,0.167245,0.161592,0.149660,0.118703,0.116440,0.090122,0.051937,0.034587,0.039855,0.026255,0.018512,0.012660,0.010511,0.014551,-0.008107,-0.010008,-0.009994,0.003378,0.012533,-0.006230,-0.038643,-0.067473,-0.107270,-0.084723,0.097681,0.474434,0.878449,0.978586,0.621570,0.170091,-0.116522,-0.271662,-0.262323,-0.191121,-0.099855,-0.017631,-0.009474,0.028915,0.011963,0.007084,0.027462,0.024643,0.038521,0.062815,0.079495,0.085115,0.120807,0.144060,0.169961,0.185028,0.217855,0.209478,0.247913,0.263119,0.290761,0.298006,0.312015,0.337874,0.317976,0.319717,0.304697,0.295186,0.278450,0.264076,0.250436,0.233194,0.197225,0.177563,0.138395,0.128414,0.119581,0.101447,0.079363,0.072453,0.056682,0.053709,0.036140,0.022678,0.023857,-0.013443,0.015990,-0.027245,-0.010278,0.009712,0.008621,-0.008800,-0.005063,0.015193,-0.003772,0.023190,0.000520,0.004459,0.016433,0.001494,-0.009897,-0.001011,-0.000297,-0.013607,-0.002531,-0.007404,0.009256,0.000354,-0.002823,-0.001058,0.002233,0.006170,-0.009996,-0.010415,0.011047,-0.004123,-0.014168,0.004438,0.004634,-0.015307,0.002295,0.007356,0.003744,0.006320,-0.014043,0.003310,-0.003026,-0.004828,0.008706,0.014793,0.017944,0.013148,-0.001097,0.003527,0.007668,0.001212,0.001308,0.008238,1
-0.000593,-0.007293,-0.004145,0.006339,0.000030,0.003402,0.006701,-0.003748,0.007562,0.003788,-0.012348,0.014423,-0.005007,-0.016551,-0.010450,-0.010210,0.000522,-0.002739,-0.003368,0.006197,0.003399,0.003160,0.004098,0.006161,-0.021080,-0.003644,-0.021802,0.000361,-0.000046,0.010456,0.011877,0.002029,-0.005001,0.004858,-0.005268,0.000008,0.009903,-0.005501,0.008195,0.007018,-0.009128,0.010447,0.008153,0.002901,-0.004658,-0.004025,0.001497,0.015536,0.004971,0.024764,0.015526,0.035353,0.049945,0.086731,0.063711,0.108770,0.112850,0.132685,0.145939,0.163327,0.168429,0.191731,0.175413,0.189404,0.165175,0.160452,0.136434,0.135434,0.127755,0.094676,0.076267,0.051238,0.046093,0.020570,0.017643,0.021361,0.026428,0.037013,-0.000022,0.018073,0.004739,-0.000129,0.005133,0.001066,0.001190,-0.005482,-0.022862,-0.048475,-0.070024,-0.107947,-0.059159,0.134076,0.473621,0.834317,0.985637,0.815977,0.428708,0.064563,-0.149750,-0.248031,-0.257438,-0.204318,-0.121492,-0.053275,-0.028680,0.008146,-0.004211,0.006373,0.032219,0.033367,0.046886,0.037799,0.039098,0.060033,0.077048,0.092186,0.119811,0.123498,0.150584,0.158116,0.194014,0.211125,0.224705,0.249890,0.268793,0.284084,0.317890,0.309378,0.314564,0.298906,0.309973,0.311532,0.298957,0.308003,0.278041,0.275705,0.244737,0.224525,0.202591,0.182664,0.179263,0.119041,0.103434,0.100540,0.090125,0.082479,0.067534,0.047791,0.052195,0.044117,0.028781,0.030869,0.019306,0.007195,0.016776,0.008526,0.005577,0.018860,-0.021472,-0.011965,-0.010276,-0.002493,-0.001740,-0.014508,-0.009459,-0.008338,0.024758,0.018142,-0.004034,-0.003581,-0.011456,-0.019058,-0.001154,-0.009969,-0.000842,-0.015998,-0.007617,0.001488,0.003663,0.004175,-0.013205,0.008547,-0.008002,0.006329,-0.000106,-0.013764,-0.003162,0.003654,0.006130,-0.001410,0.015318,0.010075,-0.002567,0.007501,0.019338,0.019605,-0.012280,-0.009265,0.014849,-0.010583,1
-0.013225,-0.004862,0.004202,-0.001024,-0.006506,-0.006742,-0.007123,-0.008795,0.022816,0.002975,0.008868,-0.004891,-0.001860,-0.007136,-0.026517,-0.013780,-0.018106,-0.022498,-0.011954,0.013250,-0.000444,0.012906,0.004110,0.007826,-0.009009,0.005240,0.007288,-0.005765,0.005599,0.005669,-0.005480,-0.011197,-0.011782,0.000977,0.003478,-0.007552,0.000918,0.006815,0.008017,0.018473,0.017399,-0.002954,0.027316,0.009843,0.031785,0.029946,0.034990,0.032859,0.062940,0.064413,0.106204,0.128753,0.122396,0.148994,0.152241,0.163795,0.184788,0.179546,0.195968,0.168269,0.173892,0.152605,0.145042,0.116658,0.104132,0.087203,0.064605,0.065550,0.053055,0.041912,0.042574,0.034623,0.010827,0.014063,0.000933,0.005104,-0.002758,0.018310,0.004983,-0.001340,0.012444,-0.021470,-0.020544,0.004751,-0.012654,-0.035424,-0.089471,-0.104593,-0.060389,0.041983,0.259759,0.566835,0.865349,0.971146,0.860083,0.552581,0.195471,-0.045720,-0.203199,-0.273718,-0.270332,-0.248359,-0.152715,-0.084145,-0.044848,-0.038053,-0.008563,0.020924,-0.014733,0.013589,0.009759,0.034922,0.026429,0.044626,0.054848,0.077442,0.068275,0.086653,0.081984,0.123980,0.120907,0.140381,0.164067,0.167518,0.204530,0.230885,0.242577,0.241244,0.271993,0.294939,0.280818,0.298368,0.324546,0.322075,0.323888,0.335524,0.315604,0.308474,0.317214,0.273740,0.251619,0.245977,0.227029,0.197616,0.172558,0.186156,0.147056,0.118070,0.117293,0.091111,0.075201,0.070405,0.040453,0.046990,0.054112,0.032488,0.018110,0.011917,0.008933,0.007344,0.003625,0.014640,-0.013330,0.011509,-0.001738,0.005219,-0.010262,0.013978,0.012925,0.009909,-0.014940,0.008426,0.004135,-0.015997,-0.000208,0.003667,0.005574,0.001781,0.002917,0.014739,0.012262,-0.028670,-0.003174,-0.001646,-0.017521,0.000942,0.012488,-0.010866,0.003364,-0.009158,-0.006719,0.014774,-0.005426,0.004622,-0.018712,0.018623,0.006027,-0.001825,0.005755,-0.014098,1
0.011825,-0.003240,-0.002041,-0.004917,-0.005807,0.006947,0.002559,0.006517,-0.000088,0.005132,-0.004188,0.022297,-0.015679,0.012609,0.013679,-0.008522,0.022293,0.009955,0.009711,0.000280,-0.002172,-0.002094,0.003906,0.014013,0.001815,-0.009109,0.008256,0.009236,0.006599,0.007563,-0.002498,-0.008888,-0.007944,-0.015049,0.004603,0.002859,0.001506,-0.020418,0.001217,0.031075,0.021296,0.041718,0.036533,0.079199,0.079458,0.101050,0.139070,0.148144,0.145609,0.156009,0.168695,0.183181,0.178941,0.173694,0.185975,0.160338,0.171883,0.135249,0.136541,0.106296,0.096770,0.065242,0.050622,0.051988,0.047165,0.029213,0.009019,0.002740,-0.002266,-0.008998,0.007270,0.015577,0.002852,-0.020574,-0.000547,-0.000729,0.021543,-0.014224,-0.003877,0.016089,-0.000008,-0.008877,-0.034487,-0.064185,-0.089860,-0.110226,-0.046503,0.047962,0.259972,0.516715,0.774102,0.960343,0.970349,0.807812,0.549573,0.262386,0.046636,-0.129600,-0.210982,-0.278972,-0.278251,-0.248996,-0.177444,-0.128801,-0.082172,-0.036358,-0.037543,-0.002622,0.025595,0.011573,0.014404,0.022566,0.029756,0.005109,0.013227,0.037888,0.035212,0.062966,0.055149,0.048429,0.065621,0.062402,0.100218,0.114366,0.126659,0.157210,0.174652,0.177758,0.175245,0.219975,0.236359,0.250376,0.272709,0.265640,0.310198,0.291426,0.317191,0.298996,0.310005,0.335017,0.314812,0.320408,0.306069,0.291612,0.292783,0.261101,0.228204,0.219167,0.212990,0.191256,0.151439,0.140072,0.122465,0.106662,0.079904,0.072210,0.057627,0.060675,0.050706,0.032355,0.022528,0.021789,0.007322,0.000121,-0.000861,-0.000150,-0.007207,0.004734,0.009451,-0.014405,0.001233,-0.001553,0.003834,0.000137,-0.014369,-0.012521,0.000356,0.010325,-0.022120,0.003470,0.011903,-0.001526,0.005504,-0.007030,-0.001193,-0.016209,-0.023443,0.009428,-0.009850,-0.004555,-0.013864,-0.014100,-0.001738,-0.007296,0.003780,0.004525,0.003208,0.002386,0.015778,-0.010676,1
-0.000549,0.011327,0.012645,-0.014218,-0.003124,0.013581,0.005081,0.001953,-0.002177,-0.003838,0.002882,-0.002524,-0.000426,0.000786,-0.006781,0.005321,0.029142,-0.017770,0.003240,-0.007602,0.005775,0.000467,0.007623,0.011766,0.001950,0.011380,-0.023313,0.016178,0.004298,0.011828,-0.010271,-0.004917,0.007178,0.009088,0.017229,0.032376,0.013335,0.052701,0.057523,0.072088,0.077715,0.116492,0.105992,0.153724,0.146691,0.172788,0.177271,0.191600,0.174850,0.162138,0.152875,0.156843,0.133933,0.108396,0.093635,0.064821,0.070111,0.035915,0.050021,0.034494,0.049413,0.008357,0.013439,0.028648,0.019677,-0.001379,0.006209,0.002812,0.004763,-0.005647,0.000022,-0.015363,0.001749,0.004663,-0.002652,-0.018228,0.003017,-0.014167,-0.044830,-0.067839,-0.107288,-0.115433,-0.093347,-0.015654,0.076487,0.252815,0.447905,0.678220,0.866320,0.987505,0.970760,0.845035,0.652285,0.435234,0.214236,0.053401,-0.089515,-0.155353,-0.256614,-0.267700,-0.285169,-0.260549,-0.219267,-0.199690,-0.128032,-0.069619,-0.059321,-0.027262,-0.002728,-0.003893,-0.001437,-0.014128,0.018152,0.013338,0.007114,0.021549,0.017884,0.022353,0.038157,0.023767,0.053338,0.035316,0.049863,0.083735,0.084660,0.084144,0.084469,0.100222,0.118811,0.131906,0.144904,0.160523,0.174317,0.178119,0.203698,0.234342,0.227576,0.254849,0.263118,0.285732,0.292404,0.320751,0.318409,0.304972,0.326687,0.311077,0.308774,0.310277,0.291792,0.292390,0.259948,0.243601,0.223647,0.203801,0.199053,0.172838,0.162525,0.147816,0.095769,0.089241,0.060969,0.051002,0.040411,0.025918,0.017488,0.019669,0.003457,0.019768,-0.001093,0.033744,-0.000646,0.003316,-0.011247,0.018159,0.011887,0.003396,-0.013210,0.002259,-0.011127,0.014673,0.008119,0.000969,-0.024356,-0.009830,0.006880,0.012130,0.011092,-0.015920,0.003016,0.010155,-0.016583,-0.000079,0.002738,-0.003008,-0.018522,-0.003257,-0.003273,-0.001481,-0.005635,-0.004430,1
-0.000397,0.004425,-0.003044,-0.004096,0.000924,-0.019209,0.004770,-0.000006,0.000397,0.009607,-0.019528,-0.019738,0.002738,-0.000071,0.001702,-0.004621,0.006644,0.009327,0.004840,-0.002606,-0.021071,0.007708,0.012258,0.006546,-0.008565,0.007245,0.009655,0.017646,-0.004934,0.004491,0.018810,0.018683,0.016397,0.044210,0.061431,0.074852,0.096454,0.112707,0.150354,0.144471,0.161653,0.176683,0.188767,0.162692,0.157004,0.137823,0.143444,0.114941,0.104582,0.097672,0.068391,0.062510,0.044519,0.043550,0.032822,0.014145,0.013894,0.021810,0.012134,-0.008122,0.010685,-0.007958,0.016129,0.011622,0.003844,0.002214,-0.001669,0.006990,-0.003938,0.000848,0.003694,-0.018689,-0.034177,-0.062282,-0.087091,-0.116447,-0.097479,-0.068187,-0.021236,0.035316,0.182912,0.346952,0.506829,0.692769,0.827813,0.956799,0.981842,0.959853,0.843288,0.719755,0.557120,0.369595,0.209827,0.065060,-0.026267,-0.116240,-0.191857,-0.219431,-0.259794,-0.282566,-0.280304,-0.254885,-0.240232,-0.220512,-0.181091,-0.164991,-0.119835,-0.088247,-0.068160,-0.037677,-0.033225,-0.008033,0.001137,-0.027470,0.017851,-0.021429,0.005370,0.024021,0.012833,0.003742,0.010127,0.034329,0.008236,0.042581,0.035083,0.028614,0.040229,0.042089,0.067865,0.074269,0.058350,0.081010,0.086864,0.119855,0.105823,0.148737,0.146654,0.150500,0.171200,0.186365,0.198383,0.228899,0.232249,0.238691,0.271648,0.270914,0.293015,0.300690,0.307545,0.339608,0.320080,0.318277,0.290695,0.290958,0.285313,0.255563,0.255014,0.212104,0.198202,0.171579,0.155584,0.124807,0.107098,0.087804,0.065256,0.062137,0.046653,0.032597,0.020469,0.025884,0.010305,0.005672,0.006933,0.020834,-0.010926,0.009246,-0.017991,0.002730,0.016072,0.005067,0.001804,-0.005552,0.000337,-0.002507,-0.007853,-0.002896,0.001985,-0.007672,-0.008063,-0.013602,0.003907,0.005453,0.002317,0.009652,0.000879,0.003920,0.003038,-0.000915,-0.005308,0.022142,1
-0.004520,-0.006659,0.004340,0.002519,-0.014048,0.011227,-0.000942,-0.011109,0.011888,0.006257,-0.012645,0.017772,0.006588,-0.000102,0.015902,0.001593,-0.000280,-0.006601,0.005824,0.004782,0.000192,-0.007779,0.001600,0.000003,-0.011810,-0.011610,0.011590,-0.015358,0.020060,0.023885,0.056179,0.056363,0.089236,0.101844,0.130058,0.157135,0.161594,0.186572,0.170060,0.179282,0.175612,0.158119,0.152599,0.106230,0.080546,0.066090,0.066334,0.050799,0.035411,0.014066,0.025939,0.000732,0.020673,0.034848,0.007947,0.008725,-0.002990,-0.016813,-0.005175,-0.010372,-0.014135,0.017263,0.001943,0.000469,-0.012939,-0.024854,-0.034773,-0.071208,-0.089393,-0.107139,-0.095838,-0.063822,0.006137,0.131943,0.273132,0.418589,0.596957,0.752853,0.856747,0.951680,0.996299,0.976456,0.897120,0.813021,0.703653,0.574133,0.438792,0.315614,0.205735,0.121444,0.036704,-0.028427,-0.091518,-0.132711,-0.179182,-0.203717,-0.227327,-0.262228,-0.284582,-0.257949,-0.272614,-0.289379,-0.272050,-0.245916,-0.241686,-0.226354,-0.187281,-0.190210,-0.165268,-0.132538,-0.108619,-0.086561,-0.063069,-0.052907,-0.035013,-0.029908,-0.016435,-0.007880,-0.000558,0.009748,0.011157,0.008831,0.002588,0.013407,0.014458,0.018781,0.041238,0.016553,0.028997,0.038871,0.033073,0.059941,0.037887,0.050725,0.046108,0.058071,0.072526,0.087989,0.093316,0.114480,0.113900,0.125688,0.171374,0.164678,0.170872,0.189172,0.205161,0.242481,0.247602,0.269730,0.283529,0.305065,0.300121,0.305330,0.321962,0.325099,0.317279,0.296176,0.296989,0.264746,0.245577,0.217385,0.214202,0.181192,0.154830,0.136296,0.128842,0.062899,0.054602,0.040662,0.025945,0.013898,0.014189,-0.000534,0.010996,0.005394,0.007827,0.006886,0.007081,-0.003143,0.021533,0.002513,-0.018539,-0.009981,-0.017385,0.000183,-0.001214,-0.004683,0.020110,0.005490,0.007261,-0.009311,-0.009991,0.000368,0.001730,-0.018563,-0.001803,0.000141,-0.002151,-0.008134,1
-0.005395,-0.001769,0.000908,0.006048,0.010809,-0.002943,-0.004562,0.004377,0.006108,-0.004342,0.007904,0.009796,0.012917,0.017783,-0.008664,0.000140,0.000116,-0.000970,-0.006458,-0.014753,0.001211,-0.006961,0.002553,-0.004276,-0.003656,0.015985,0.025075,0.043722,0.078865,0.082975,0.110733,0.120721,0.141146,0.186394,0.169836,0.168253,0.169543,0.153516,0.125409,0.109375,0.102846,0.062369,0.039095,0.048186,0.032488,0.012918,-0.002849,0.001180,0.005088,0.015281,-0.008065,0.000599,0.007650,-0.023262,0.010632,-0.011964,0.001615,-0.004461,-0.009097,-0.038080,-0.097994,-0.107351,-0.101514,-0.072785,0.008577,0.130001,0.285137,0.459365,0.629309,0.807012,0.933524,0.976147,0.989049,0.934125,0.830048,0.679604,0.570959,0.478752,0.339902,0.223688,0.167709,0.080494,0.028337,-0.032631,-0.074665,-0.112050,-0.138942,-0.148224,-0.182080,-0.224808,-0.218764,-0.223541,-0.232554,-0.256704,-0.247147,-0.254602,-0.242139,-0.278391,-0.278142,-0.277531,-0.280049,-0.284024,-0.302029,-0.277308,-0.267066,-0.272673,-0.244476,-0.258805,-0.240059,-0.243207,-0.229132,-0.224814,-0.202701,-0.203157,-0.184650,-0.170497,-0.160411,-0.135916,-0.099469,-0.106191,-0.081269,-0.055666,-0.040904,-0.037942,-0.049622,-0.010454,-0.029714,0.013419,0.005108,0.016948,0.000706,-0.003423,0.016977,0.016419,0.014508,0.023348,0.053770,0.038650,0.045728,0.049429,0.062488,0.053567,0.043891,0.072843,0.094567,0.089991,0.112736,0.123964,0.163787,0.175491,0.194823,0.215531,0.230129,0.253198,0.258861,0.266255,0.304041,0.316333,0.331071,0.335283,0.330182,0.293660,0.283793,0.270936,0.266354,0.228012,0.195182,0.150838,0.117803,0.108669,0.066891,0.056033,0.041312,0.045809,0.016793,-0.011013,0.013542,-0.001784,0.003501,0.000881,-0.001780,0.008407,-0.015074,-0.005046,0.006898,-0.006115,-0.016077,0.006690,0.011233,-0.000449,-0.019608,0.007060,-0.016599,0.003088,-0.008875,-0.011598,-0.004419,-0.001833,-0.006442,0.005887,1
