@Relation toy_morph

@attribute att1 numeric
@attribute att2 numeric
@attribute att3 numeric
@attribute att4 numeric
@attribute att5 numeric
@attribute att6 numeric
@attribute att7 numeric
@attribute att8 numeric
@attribute att9 numeric
@attribute att10 numeric
@attribute att11 numeric
@attribute att12 numeric
@attribute att13 numeric
@attribute att14 numeric
@attribute att15 numeric
@attribute att16 numeric
@attribute att17 numeric
@attribute att18 numeric
@attribute att19 numeric
@attribute att20 numeric
@attribute att21 numeric
@attribute att22 numeric
@attribute att23 numeric
@attribute att24 numeric
@attribute att25 numeric
@attribute att26 numeric
@attribute att27 numeric
@attribute att28 numeric
@attribute att29 numeric
@attribute att30 numeric
@attribute att31 numeric
@attribute att32 numeric
@attribute att33 numeric
@attribute att34 numeric
@attribute att35 numeric
@attribute att36 numeric
@attribute att37 numeric
@attribute att38 numeric
@attribute att39 numeric
@attribute att40 numeric
@attribute att41 numeric
@attribute att42 numeric
@attribute att43 numeric
@attribute att44 numeric
@attribute att45 numeric
@attribute att46 numeric
@attribute att47 numeric
@attribute att48 numeric
@attribute att49 numeric
@attribute att50 numeric
@attribute att51 numeric
@attribute att52 numeric
@attribute att53 numeric
@attribute att54 numeric
@attribute att55 numeric
@attribute att56 numeric
@attribute att57 numeric
@attribute att58 numeric
@attribute att59 numeric
@attribute att60 numeric
@attribute att61 numeric
@attribute att62 numeric
@attribute att63 numeric
@attribute att64 numeric
@attribute att65 numeric
@attribute att66 numeric
@attribute att67 numeric
@attribute att68 numeric
@attribute att69 numeric
@attribute att70 numeric
@attribute att71 numeric
@attribute att72 numeric
@attribute att73 numeric
@attribute att74 numeric
@attribute att75 numeric
@attribute att76 numeric
@attribute att77 numeric
@attribute att78 numeric
@attribute att79 numeric
@attribute att80 numeric
@attribute att81 numeric
@attribute att82 numeric
@attribute att83 numeric
@attribute att84 numeric
@attribute att85 numeric
@attribute att86 numeric
@attribute att87 numeric
@attribute att88 numeric
@attribute att89 numeric
@attribute att90 numeric
@attribute att91 numeric
@attribute att92 numeric
@attribute att93 numeric
@attribute att94 numeric
@attribute att95 numeric
@attribute att96 numeric
@attribute att97 numeric
@attribute att98 numeric
@attribute att99 numeric
@attribute att100 numeric
@attribute att101 numeric
@attribute att102 numeric
@attribute att103 numeric
@attribute att104 numeric
@attribute att105 numeric
@attribute att106 numeric
@attribute att107 numeric
@attribute att108 numeric
@attribute att109 numeric
@attribute att110 numeric
@attribute att111 numeric
@attribute att112 numeric
@attribute att113 numeric
@attribute att114 numeric
@attribute att115 numeric
@attribute att116 numeric
@attribute att117 numeric
@attribute att118 numeric
@attribute att119 numeric
@attribute att120 numeric
@attribute att121 numeric
@attribute att122 numeric
@attribute att123 numeric
@attribute att124 numeric
@attribute att125 numeric
@attribute att126 numeric
@attribute att127 numeric
@attribute att128 numeric
@attribute att129 numeric
@attribute att130 numeric
@attribute att131 numeric
@attribute att132 numeric
@attribute att133 numeric
@attribute att134 numeric
@attribute att135 numeric
@attribute att136 numeric
@attribute att137 numeric
@attribute att138 numeric
@attribute att139 numeric
@attribute att140 numeric
@attribute att141 numeric
@attribute att142 numeric
@attribute att143 numeric
@attribute att144 numeric
@attribute att145 numeric
@attribute att146 numeric
@attribute att147 numeric
@attribute att148 numeric
@attribute att149 numeric
@attribute att150 numeric
@attribute att151 numeric
@attribute att152 numeric
@attribute att153 numeric
@attribute att154 numeric
@attribute att155 numeric
@attribute att156 numeric
@attribute att157 numeric
@attribute att158 numeric
@attribute att159 numeric
@attribute att160 numeric
@attribute att161 numeric
@attribute att162 numeric
@attribute att163 numeric
@attribute att164 numeric
@attribute att165 numeric
@attribute att166 numeric
@attribute att167 numeric
@attribute att168 numeric
@attribute att169 numeric
@attribute att170 numeric
@attribute att171 numeric
@attribute att172 numeric
@attribute att173 numeric
@attribute att174 numeric
@attribute att175 numeric
@attribute att176 numeric
@attribute att177 numeric
@attribute att178 numeric
@attribute att179 numeric
@attribute att180 numeric
@attribute att181 numeric
@attribute att182 numeric
@attribute att183 numeric
@attribute att184 numeric
@attribute att185 numeric
@attribute att186 numeric
@attribute att187 numeric
@attribute att188 numeric
@attribute att189 numeric
@attribute att190 numeric
@attribute att191 numeric
@attribute att192 numeric
@attribute att193 numeric
@attribute att194 numeric
@attribute att195 numeric
@attribute att196 numeric
@attribute att197 numeric
@attribute att198 numeric
@attribute att199 numeric
@attribute att200 numeric
@attribute target {1}

@data
0.000000,0.000000,0.000000,0.000000,0.000000,0.000000,0.000000,0.000000,0.000000,0.000000,0.000000,0.000000,0.000000,0.000000,0.000000,0.000000,0.000000,0.000001,0.000001,0.000002,0.000002,0.000004,0.000006,0.000010,0.000015,0.000023,0.000034,0.000052,0.000078,0.000115,0.000169,0.000246,0.000356,0.000510,0.000724,0.001021,0.001427,0.001979,0.002720,0.003708,0.005013,0.006721,0.008935,0.011781,0.015404,0.019973,0.025683,0.032751,0.041416,0.051938,0.064592,0.079662,0.097430,0.118171,0.142137,0.169541,0.200547,0.235252,0.273669,0.315712,0.361187,0.409778,0.461040,0.514403,0.569171,0.624536,0.679588,0.733347,0.784779,0.832837,0.876491,0.914764,0.946773,0.971755,0.989106,0.998397,0.999397,0.992083,0.976635,0.953435,0.923049,0.886202,0.843754,0.796660,0.745942,0.692647,0.637813,0.582437,0.527448,0.473680,0.421856,0.372580,0.326323,0.283434,0.244135,0.208537,0.176649,0.148393,0.123620,0.102127,0.083670,0.067978,0.054770,0.043762,0.034675,0.027247,0.021232,0.016407,0.012574,0.009556,0.007202,0.005382,0.003989,0.002932,0.002137,0.001545,0.001107,0.000787,0.000555,0.000388,0.000269,0.000185,0.000126,0.000085,0.000057,0.000038,0.000025,0.000016,0.000011,0.000007,0.000004,0.000003,0.000002,0.000001,0.000001,0.000000,0.000000,0.000000,0.000000,0.000000,0.000000,0.000000,0.000000,0.000000,0.000000,0.000000,0.000000,0.000000,0.000000,0.000000,0.000000,0.000000,0.000000,0.000000,0.000000,0.000000,0.000000,0.000000,0.000000,0.000000,0.000000,0.000000,0.000000,0.000000,0.000000,0.000000,0.000000,0.000000,0.000000,0.000000,0.000000,0.000000,0.000000,0.000000,0.000000,0.000000,0.000000,0.000000,0.000000,0.000000,0.000000,0.000000,0.000000,0.000000,0.000000,0.000000,0.000000,0.000000,0.000000,0.000000,0.000000,0.000000,0.000000,0.000000,0.000000,0.000000,0.000000,0.000000,0.000000,0.000000,1
0.000000,0.000000,0.000000,0.000000,0.000000,0.000000,0.000000,0.000000,0.000000,0.000000,0.000000,0.000000,0.000000,0.000000,0.000000,0.000001,0.000001,0.000001,0.000001,0.000002,0.000002,0.000003,0.000003,0.000004,0.000006,0.000007,0.000009,0.000011,0.000014,0.000018,0.000023,0.000029,0.000036,0.000044,0.000055,0.000068,0.000084,0.000104,0.000128,0.000157,0.000192,0.000234,0.000285,0.000347,0.000420,0.000507,0.000611,0.000735,0.000881,0.001054,0.001257,0.001496,0.001776,0.002103,0.002483,0.002926,0.003438,0.004030,0.004711,0.005495,0.006392,0.007417,0.008585,0.009911,0.011414,0.013111,0.015023,0.017170,0.019574,0.022259,0.025248,0.028566,0.032239,0.036292,0.040752,0.045645,0.050996,0.056831,0.063173,0.070047,0.077472,0.085468,0.094052,0.103237,0.113034,0.123447,0.134480,0.146130,0.158388,0.171242,0.184672,0.198653,0.213154,0.228136,0.243555,0.259361,0.275496,0.291896,0.308493,0.325212,0.341972,0.358689,0.375274,0.391635,0.407680,0.423311,0.438433,0.452950,0.466768,0.479794,0.491939,0.503120,0.513258,0.522279,0.530119,0.536719,0.542031,0.546015,0.548641,0.549889,0.549750,0.548225,0.545326,0.541073,0.535500,0.528648,0.520568,0.511318,0.500965,0.489585,0.477256,0.464065,0.450100,0.435454,0.420222,0.404501,0.388385,0.371971,0.355353,0.338621,0.321862,0.305162,0.288598,0.272245,0.256171,0.240439,0.225103,0.210214,0.195814,0.181941,0.168625,0.155889,0.143751,0.132224,0.121315,0.111025,0.101352,0.092288,0.083823,0.075942,0.068629,0.061863,0.055624,0.049888,0.044630,0.039826,0.035450,0.031475,0.027875,0.024624,0.021698,0.019071,0.016720,0.014622,0.012755,0.011098,0.009632,0.008339,0.007201,0.006203,0.005329,0.004567,0.003904,0.003329,0.002832,0.002403,0.002033,0.001716,0.001445,0.001214,0.001017,0.000850,0.000708,0.000589,0.000488,0.000404,0.000333,0.000274,0.000225,0.000185,1
