@Relation toy_spread

@attribute att1 numeric
@attribute att2 numeric
@attribute att3 numeric
@attribute att4 numeric
@attribute att5 numeric
@attribute att6 numeric
@attribute att7 numeric
@attribute att8 numeric
@attribute att9 numeric
@attribute att10 numeric
@attribute att11 numeric
@attribute att12 numeric
@attribute att13 numeric
@attribute att14 numeric
@attribute att15 numeric
@attribute att16 numeric
@attribute att17 numeric
@attribute att18 numeric
@attribute att19 numeric
@attribute att20 numeric
@attribute att21 numeric
@attribute att22 numeric
@attribute att23 numeric
@attribute att24 numeric
@attribute att25 numeric
@attribute att26 numeric
@attribute att27 numeric
@attribute att28 numeric
@attribute att29 numeric
@attribute att30 numeric
@attribute att31 numeric
@attribute att32 numeric
@attribute att33 numeric
@attribute att34 numeric
@attribute att35 numeric
@attribute att36 numeric
@attribute att37 numeric
@attribute att38 numeric
@attribute att39 numeric
@attribute att40 numeric
@attribute att41 numeric
@attribute att42 numeric
@attribute att43 numeric
@attribute att44 numeric
@attribute att45 numeric
@attribute att46 numeric
@attribute att47 numeric
@attribute att48 numeric
@attribute att49 numeric
@attribute att50 numeric
@attribute att51 numeric
@attribute att52 numeric
@attribute att53 numeric
@attribute att54 numeric
@attribute att55 numeric
@attribute att56 numeric
@attribute att57 numeric
@attribute att58 numeric
@attribute att59 numeric
@attribute att60 numeric
@attribute att61 numeric
@attribute att62 numeric
@attribute att63 numeric
@attribute att64 numeric
@attribute att65 numeric
@attribute att66 numeric
@attribute att67 numeric
@attribute att68 numeric
@attribute att69 numeric
@attribute att70 numeric
@attribute att71 numeric
@attribute att72 numeric
@attribute att73 numeric
@attribute att74 numeric
@attribute att75 numeric
@attribute att76 numeric
@attribute att77 numeric
@attribute att78 numeric
@attribute att79 numeric
@attribute att80 numeric
@attribute att81 numeric
@attribute att82 numeric
@attribute att83 numeric
@attribute att84 numeric
@attribute att85 numeric
@attribute att86 numeric
@attribute att87 numeric
@attribute att88 numeric
@attribute att89 numeric
@attribute att90 numeric
@attribute att91 numeric
@attribute att92 numeric
@attribute att93 numeric
@attribute att94 numeric
@attribute att95 numeric
@attribute att96 numeric
@attribute att97 numeric
@attribute att98 numeric
@attribute att99 numeric
@attribute att100 numeric
@attribute att101 numeric
@attribute att102 numeric
@attribute att103 numeric
@attribute att104 numeric
@attribute att105 numeric
@attribute att106 numeric
@attribute att107 numeric
@attribute att108 numeric
@attribute att109 numeric
@attribute att110 numeric
@attribute att111 numeric
@attribute att112 numeric
@attribute att113 numeric
@attribute att114 numeric
@attribute att115 numeric
@attribute att116 numeric
@attribute att117 numeric
@attribute att118 numeric
@attribute att119 numeric
@attribute att120 numeric
@attribute att121 numeric
@attribute att122 numeric
@attribute att123 numeric
@attribute att124 numeric
@attribute att125 numeric
@attribute att126 numeric
@attribute att127 numeric
@attribute att128 numeric
@attribute att129 numeric
@attribute att130 numeric
@attribute att131 numeric
@attribute att132 numeric
@attribute att133 numeric
@attribute att134 numeric
@attribute att135 numeric
@attribute att136 numeric
@attribute att137 numeric
@attribute att138 numeric
@attribute att139 numeric
@attribute att140 numeric
@attribute att141 numeric
@attribute att142 numeric
@attribute att143 numeric
@attribute att144 numeric
@attribute att145 numeric
@attribute att146 numeric
@attribute att147 numeric
@attribute att148 numeric
@attribute att149 numeric
@attribute att150 numeric
@attribute att151 numeric
@attribute att152 numeric
@attribute att153 numeric
@attribute att154 numeric
@attribute att155 numeric
@attribute att156 numeric
@attribute att157 numeric
@attribute att158 numeric
@attribute att159 numeric
@attribute att160 numeric
@attribute att161 numeric
@attribute att162 numeric
@attribute att163 numeric
@attribute att164 numeric
@attribute att165 numeric
@attribute att166 numeric
@attribute att167 numeric
@attribute att168 numeric
@attribute att169 numeric
@attribute att170 numeric
@attribute att171 numeric
@attribute att172 numeric
@attribute att173 numeric
@attribute att174 numeric
@attribute att175 numeric
@attribute att176 numeric
@attribute att177 numeric
@attribute att178 numeric
@attribute att179 numeric
@attribute att180 numeric
@attribute att181 numeric
@attribute att182 numeric
@attribute att183 numeric
@attribute att184 numeric
@attribute att185 numeric
@attribute att186 numeric
@attribute att187 numeric
@attribute att188 numeric
@attribute att189 numeric
@attribute att190 numeric
@attribute att191 numeric
@attribute att192 numeric
@attribute att193 numeric
@attribute att194 numeric
@attribute att195 numeric
@attribute att196 numeric
@attribute att197 numeric
@attribute att198 numeric
@attribute att199 numeric
@attribute att200 numeric
@attribute target {1}

@data
0.000000,0.000000,0.000000,0.000000,0.000000,0.000000,0.000000,0.000000,0.000000,0.000000,0.000000,0.000000,0.000000,0.000000,0.000000,0.000000,0.000000,0.000000,0.000000,0.000000,0.000000,0.000000,0.000000,0.000000,0.000000,0.000000,0.000000,0.000000,0.000000,0.000000,0.000000,0.000000,0.000000,0.000000,0.000000,0.000000,0.000000,0.000000,0.000000,0.000000,0.000000,0.000000,0.000000,0.000000,0.000000,0.000000,0.000000,0.000000,0.000000,0.000001,0.000001,0.000002,0.000003,0.000004,0.000008,0.000013,0.000023,0.000039,0.000067,0.000114,0.000194,0.000327,0.000550,0.000915,0.001511,0.002468,0.003987,0.006360,0.010008,0.015519,0.023685,0.035538,0.052363,0.075684,0.107190,0.148597,0.201430,0.266717,0.344634,0.434139,0.532674,0.636015,0.738374,0.832789,0.911820,0.968466,0.997165,0.994686,0.960715,0.897993,0.811965,0.709995,0.600321,0.490981,0.388910,0.299384,0.225866,0.170204,0.133087,0.114579,0.114579,0.133087,0.170204,0.225866,0.299384,0.388910,0.490981,0.600321,0.709995,0.811965,0.897993,0.960715,0.994686,0.997165,0.968466,0.911820,0.832789,0.738374,0.636015,0.532674,0.434139,0.344634,0.266717,0.201430,0.148597,0.107190,0.075684,0.052363,0.035538,0.023685,0.015519,0.010008,0.006360,0.003987,0.002468,0.001511,0.000915,0.000550,0.000327,0.000194,0.000114,0.000067,0.000039,0.000023,0.000013,0.000008,0.000004,0.000003,0.000002,0.000001,0.000001,0.000000,0.000000,0.000000,0.000000,0.000000,0.000000,0.000000,0.000000,0.000000,0.000000,0.000000,0.000000,0.000000,0.000000,0.000000,0.000000,0.000000,0.000000,0.000000,0.000000,0.000000,0.000000,0.000000,0.000000,0.000000,0.000000,0.000000,0.000000,0.000000,0.000000,0.000000,0.000000,0.000000,0.000000,0.000000,0.000000,0.000000,0.000000,0.000000,0.000000,0.000000,0.000000,0.000000,0.000000,0.000000,0.000000,0.000000,0.000000,0.000000,1
0.000000,0.000000,0.000000,0.000000,0.000000,0.000000,0.000000,0.000000,0.000000,0.000000,0.000000,0.000000,0.000000,0.000001,0.000003,0.000007,0.000017,0.000039,0.000083,0.000173,0.000345,0.000668,0.001247,0.002251,0.003931,0.006644,0.010877,0.017262,0.026576,0.039725,0.057700,0.081506,0.112072,0.150135,0.196128,0.250077,0.311524,0.379492,0.452500,0.528631,0.605645,0.681128,0.752653,0.817945,0.875027,0.922332,0.958770,0.983768,0.997245,0.999576,0.991517,0.974115,0.948621,0.916400,0.878847,0.837323,0.793105,0.747344,0.701045,0.655061,0.610084,0.566662,0.525203,0.485999,0.449234,0.415008,0.383350,0.354234,0.327592,0.303325,0.281310,0.261415,0.243496,0.227408,0.213007,0.200153,0.188709,0.178547,0.169547,0.161594,0.154584,0.148421,0.143014,0.138283,0.134155,0.130562,0.127443,0.124746,0.122421,0.120425,0.118721,0.117274,0.116057,0.115044,0.114213,0.113547,0.113031,0.112654,0.112407,0.112285,0.112285,0.112407,0.112654,0.113031,0.113547,0.114213,0.115044,0.116057,0.117274,0.118721,0.120425,0.122421,0.124746,0.127443,0.130562,0.134155,0.138283,0.143014,0.148421,0.154584,0.161594,0.169547,0.178547,0.188709,0.200153,0.213007,0.227408,0.243496,0.261415,0.281310,0.303325,0.327592,0.354234,0.383350,0.415008,0.449234,0.485999,0.525203,0.566662,0.610084,0.655061,0.701045,0.747344,0.793105,0.837323,0.878847,0.916400,0.948621,0.974115,0.991517,0.999576,0.997245,0.983768,0.958770,0.922332,0.875027,0.817945,0.752653,0.681128,0.605645,0.528631,0.452500,0.379492,0.311524,0.250077,0.196128,0.150135,0.112072,0.081506,0.057700,0.039725,0.026576,0.017262,0.010877,0.006644,0.003931,0.002251,0.001247,0.000668,0.000345,0.000173,0.000083,0.000039,0.000017,0.000007,0.000003,0.000001,0.000000,0.000000,0.000000,0.000000,0.000000,0.000000,0.000000,0.000000,0.000000,0.000000,0.000000,0.000000,0.000000,1
